 O Al  P Al  P Al  P Al 
 1.0000000000000000
     6.9511130000000003    0.0000000000000000    0.0000000000000000
     1.2871478058371690    9.2227878923814330    0.0000000000000000
     0.8255602359281580   -1.4193939180249151   11.0524615907601369
  48   2   4   2   6   4   2   4
Cartesian
  7.8458614490000000  6.0788929300000003  8.5711653289999994
  3.4887018890000001 -0.5332120630000000  6.0360955000000001
  1.7146331399999999  5.3166257449999996  2.7268933249999998
  3.3211872470000001  3.2600921619999998  8.9455106200000003
  5.6632114509999996  4.0191880129999999  0.1893637060000000
  3.0047918519999999  0.7855761190000000  8.4032962030000000
  1.6350142370000000  3.8459509660000002  7.3075211529999997
  5.1272543009999998  1.2130993590000001  6.9498214699999998
  7.1195966600000000  8.0273570989999996  7.3669078460000001
  5.5384005590000003  2.4837191409999999  4.3153653849999998
  6.0249477059999998 -0.3099949180000000  9.7936907190000007
  4.3734477189999996  1.5647626170000000 10.2877030800000000
  3.9999527680000000  4.2634834509999999  6.6170886189999996
  7.2628161240000004  2.0768600419999999  6.0204650400000004
  5.1006635019999997  7.6111176870000001  8.8122308829999998
  2.9326671649999998  2.0903602800000001  6.0170778809999996
  3.5712150800000000  5.6359303960000000  8.8384292270000007
  6.2098302470000002  8.7179219339999996  0.5596337920000000
  8.0752154239999996  6.0603397919999997  6.1167764379999996
  2.7429061560000001  7.9446633080000000  7.2164292540000003
  6.6377209239999999 -0.1607026590000000  2.7154479500000002
  5.6909638090000003  6.3001016700000001  1.1339572330000001
  1.0893679629999999  1.9096651190000000  3.4571639709999999
  5.7090468919999999  4.6510955100000002  9.8702474609999999
  3.4488505279999999  7.0098656920000000  2.3254930500000000
  3.4823628310000001  1.4495626159999999  3.5309268089999999
  6.7981372110000002  1.2440239749999999  0.6830833750000000
  2.2619770230000000  4.1674051639999998  4.8728764079999998
  5.8337865810000000  4.9248418300000001  4.3801884780000000
  2.1903662640000001  2.7610749740000000  1.5748672410000000
  5.5002921320000002  8.1792199300000004  3.0702083419999999
  7.3228920459999998  1.0711706000000001  8.2216171029999998
  1.2457483620000001 -0.2836342540000000  4.9081642270000003
  1.4443915130000000  7.1382509640000000  0.9543298500000000
  8.1013577249999997  4.1878302559999998 10.3261714550000008
  2.1919261140000001  0.3013904800000000  1.8269776010000001
  3.5151961520000001  6.6706370369999997  5.1915605830000002
  1.8474825820000000  1.7615643470000000 10.3311812449999998
  4.4284427449999999  6.6868814790000002 11.0239965269999995
  6.7204754400000004  3.6676498030000002  2.4366671310000001
  2.9848268330000001  5.1496510779999998  0.6155523060000000
  5.5677612310000004  0.0809201590000000  4.7853405510000000
  5.7833519390000001  5.8931849160000001  7.0575504880000004
  4.2575757379999999  3.9894419619999999  2.6871740289999999
  2.7328379680000001  7.7765722119999996  9.7444201410000009
  6.1322985919999997  3.2507693930000001  7.8956438330000003
  7.4386011830000003  7.0222923039999996  4.0510671680000003
  4.5286109280000000  1.8610574559999999  1.1685936740000000
  1.9513884159999999  8.8193935949999993  1.1921037649999999
  4.8192608420000003  7.8542057610000002  1.4346875280000000
  6.6939986300000003  4.1209542739999998 10.8973460279999994
  3.1137651740000001  1.8024167360000001  9.5201869279999993
  2.3064782529999999  1.6172018459999999  2.6358253079999998
  5.5680443589999999  3.7476817470000001  3.3960870139999999
  3.8629709580000000  3.5551147109999999  0.9380484080000000
  7.2919938410000000  3.0549079200000002  0.8899936660000000
  4.0098166749999997  6.9590898579999996  9.5927995429999999
  5.2605821900000000  0.9326320290000000  0.2473542800000000
  6.8992651890000003  8.3039051310000005  3.5581403900000002
  2.3981100590000000  6.1200942840000003  1.6366858330000000
  3.3419867640000001  8.1160575640000001  5.8463149750000003
  6.4909859040000004  1.9198704760000000  7.3039054019999998
  1.6396799580000001  5.7640033549999998  4.4318461080000002
  4.8055083080000003  5.5135484190000001  5.6208005099999996
  1.9618158980000000  4.6407138920000000  8.8754828569999997
  4.7962928460000001  4.2520783750000000  8.4198947480000008
  7.2149931189999998  6.4665827900000004  7.2499608459999996
  2.6099862930000000  3.5425808019999998  6.2003512479999996
  4.2346998070000001  1.2959565810000000  5.1283495769999998
  7.0667013760000001  1.1105117670000000  4.5785306820000002
  4.2613715089999999 -0.2537704750000000  7.7193761030000001
  7.3071982190000000 -0.6580956510000000  8.5497288919999992
