 O Al  P Al  P Al  P Al 
 1.0000000000000000
     8.7457779999999996    0.0000000000000000    0.0000000000000000
    -3.6334386590738972    7.4226135063307233    0.0000000000000000
     1.9300690643030731    0.8991030954931378   10.7427370327489129
  48   2   4   2   6   4   2   4
Cartesian
  6.1569145860000001  4.7781572780000001  0.7627161750000000
  3.1100973040000000  1.2216892109999999  1.3543466239999999
  5.2844302479999996  4.9995698209999997  3.3877745240000001
  1.1302521750000001  4.0145708349999998  4.7700883090000001
  5.0400762590000001  4.3700099390000000  5.8010007080000001
  1.0502590960000000  1.6652904980000001  3.9080003840000002
 -1.1235200890000001  5.6589564699999997  4.0836256769999997
  5.1837046979999997  1.8954113800000001  4.4037856849999999
 -0.5422257430000000  6.1952182450000004  0.6371986630000001
  5.0894682350000000  3.0238871509999998  1.9971237710000000
  3.2872667600000001  1.0660798410000001 10.4552254100000006
  7.7946206699999996  3.4298876269999998 10.4064399680000008
  1.5825857919999999  4.5565881890000002  1.2519368810000000
  5.4743631779999999  0.5847907630000000  1.9280673230000001
  1.1275427530000000  6.0206937350000000  3.1509842269999999
  7.3872301350000003  1.3728055539999999  3.3416133349999999
  0.8506764850000000  6.5732107500000003  5.5605325580000002
  6.8522276609999997  0.7328100010000000  5.6764048940000000
  3.2066599679999999  5.4297954559999999  4.5359022780000000
  2.8335819789999999  2.4911335310000000  5.5768169429999999
  7.8387635400000004  0.8272918510000000  0.9235492900000000
 -0.6876025630000000  3.9155989970000000  2.2487831749999998
  4.3580478300000003  8.0112537120000002 10.4665031719999995
  0.8269112270000000  2.2577410429999998  1.1977568690000000
  7.5152096989999997  5.4008282589999999  6.6654043779999999
  4.9551816469999999  2.0791963970000000  7.1323842730000004
  5.8309042370000004  6.7857045190000003  7.8713737269999999
  3.3818737280000000  3.0430719979999998  8.9590680819999999
  3.8938096240000002  4.0512054610000003  0.0613965000000000
 -2.3277779500000002  7.0889779669999999  2.1115422460000000
  7.7274933370000003  6.0826777239999998  9.0541549460000006
  5.6556252530000002  2.0334094610000002  9.5225488820000006
 -0.7049564390000000  7.8249074719999996  7.1581598319999999
  5.5114484360000002  4.1337130259999997  8.2366553610000004
  3.3883571520000002  0.5283153690000000  3.9696869010000002
  7.2213469610000001  3.1405489179999999  5.1449588060000000
  3.1364942550000001  5.9153601690000004  7.0085661019999996
  9.3353207160000000  1.7092565940000000  6.5728635469999999
  1.4525249579999999  6.6955375750000004  8.6958138389999995
  7.7328216520000002  3.0545493100000001  7.8304669499999999
  1.5761186920000001  4.6033838800000000 10.4846439799999995
  3.5141281990000000  6.1469609460000001  1.8487001759999999
  3.6990455560000002  5.7793606259999999  9.3960702240000007
  9.6071909719999997  2.1981327500000001  8.9952061719999996
  3.6108020010000001  7.9486337799999998  8.1376748390000007
  1.2628871319999999  4.1009796830000003  7.3478107079999999
  5.2998951310000004  6.7653688460000003  5.1785732729999996
  2.8804993120000000  3.1831993750000001  3.1969907009999998
 -1.9499878020000001  5.1961932830000004  2.5370418610000001
  4.2568993350000000  1.6495814760000000  2.7253911689999999
  4.7678205360000003  5.4040197709999997  4.7423706929999998
  1.9333630570000000  2.7715438319999999  4.3889837829999996
 -1.3337095189999999  7.4722404449999997  0.9215938390000000
  5.2130960240000004  3.5230358599999998  0.6035008690000000
  2.5215888720000001  4.9965558190000001  2.7562952630000002
  0.1505786280000000  1.1009870939999999  2.4909009379999998
  0.1320487430000000  6.4618317699999999  4.1558980150000000
  6.7234869620000000  1.8075552349999999  4.6190370200000004
  2.9268863640000000  7.3681405719999997  1.1410893520000001
  0.3430908380000000  3.7425721479999998  1.1478292390000000
 -1.3527285360000001  6.5615145259999998  7.6134081690000004
  4.7830284990000003  2.7428074859999998  8.5057406049999997
  5.4261704640000001  5.6130036380000004  9.2616810510000001
  2.1541043420000001  2.4865296579999998 10.2246560150000008
  6.5500392029999999  3.9003038459999999  6.6192314220000004
  4.0113455460000003  1.1874794090000000  5.8601200499999999
  2.9178820660000002  6.5669264480000002  8.3837464490000002
  0.5277361790000000  2.8126410680000000  7.6010279130000002
  0.5030926830000000  6.0990056370000003 10.0841203529999994
  7.4545834140000000  1.9457147870000000  9.4072946389999998
  1.9269238209999999  5.1188157140000001  5.9633898529999998
  4.6684786510000000  7.6682259970000004  6.5758286520000002
