 O Al  P Al  P Al  P Al 
 1.0000000000000000
     8.6739479999999993    0.0000000000000000    0.0000000000000000
     4.1677666014388270    7.7547767971193116    0.0000000000000000
    -0.2031588929920023   -1.2477373572989523   10.5873358241421105
  48   2   4   2   6   4   2   4
Cartesian
  3.2853738880000001  2.9882478010000000  2.4907914189999998
  6.1498291240000000  0.3504685000000000 10.1054126229999994
  1.0216813950000001 -0.2997522510000000  2.8830011920000000
  5.3616737030000001 -0.1451502640000000  3.0428083699999999
  3.0304037770000001  0.6842608280000000  3.9240557720000000
  7.5224656960000003  0.6688993190000000  4.1973976510000002
  9.6521123350000000  2.0952317620000001  4.4559198560000004
  5.2500425430000002  2.1365473040000000  4.4648747899999996
  5.4851414119999999  2.1991520740000001  1.7572678440000000
  3.1157360139999999  0.9232560050000000  1.0331466680000001
  7.4973108110000002  3.2842297450000002  0.8790774880000000
  2.6487067010000001  3.0875280190000001  0.0514270780000000
  9.7872584570000001  7.0883872649999997  0.5497224490000000
  5.3162912290000000  6.9705563359999996  0.0896262190000000
  7.8667362279999997  3.3146990629999999  3.4425427439999998
  4.6332625660000000  4.5645890450000000  4.0991196499999996
  9.3522959070000002  4.5997701749999997  5.0375435059999996
  5.4332617289999998  3.9326569419999999  6.2095540099999997
  7.1945925250000000  5.9530672620000002  3.4814021999999998
 11.3966514419999996  6.0085909890000000  3.5569728170000001
  7.2564663280000001  5.5915359540000003  0.6100318410000000
  9.3863523289999993  5.0656875399999999  2.0515101320000002
  5.0759850799999997  3.2212103839999999 10.1120908840000006
 11.6197380799999994  5.4045382699999998  1.0357522250000000
  1.4484447330000001  1.8136557730000000  7.1542068829999996
  5.8246473779999999  1.5964455730000000  7.1294052839999997
  8.3760870050000005  1.5183960030000001  9.0392655620000006
  5.3796395649999997 -0.7109939490000000  7.7404161000000000
  9.7414797259999997  2.1969399479999998  1.7332079579999999
  7.6173195229999999  0.8820349550000000  1.6134118749999999
  8.3037991390000006  0.1914982670000000  6.9862258109999997
  4.0323149830000000  1.0443968120000000  8.7999426750000005
  1.5290529500000001 -0.0439741890000000  8.7657311900000003
  3.6498316690000001  0.5095542030000000  6.4049380510000002
  7.7869224069999996  2.7927148239999999  5.9079860709999998
  3.1761366369999999  3.0486436769999998  5.4579836220000004
  9.2959437230000006  4.6263274980000002  7.7472993660000000
  4.9121376750000003  5.5297987559999999  8.0413687520000003
  7.0711757750000004  3.7757491459999999  8.5809260540000007
  3.2020779970000000  3.6251802469999999  8.2703748610000005
  9.4237341969999999  3.6185367930000001 10.1670636360000000
  5.3238923050000002  5.0665439770000003  1.8771423979999999
  7.8351732939999996  6.0432058929999997  9.2263119850000006
 11.4229513550000004  5.8812508899999996  9.1736720260000002
  7.3124797829999997  5.6397064959999996  6.8101809949999996
 11.6183414620000001  5.4431054330000004  6.6490623859999998
  5.7157487959999997  7.0402309630000000  5.2595573990000002
  5.9826747940000002 -0.5677064150000000  5.3948809160000000
  8.7755566450000000  1.2571289870000000  2.9182482379999999
  4.5067794069999998  1.4049318559999999  2.9982412379999999
  6.3318590849999996  7.1336039690000002  3.8234686010000001
 10.6686487349999997  7.2402904100000001  3.9374103150000002
  6.7268968109999996  1.9093717910000001  0.9465157120000000
  2.4918511360000002  2.3190436210000001  1.3264367829999999
  7.6582469460000002  4.6963886400000003  2.2639219669999999
  3.6947379649999998  4.8597896140000003  2.6196658350000002
  8.6585579090000007  3.2864446720000000  4.7805559239999997
  4.6009770950000002  3.3989480269999999  5.0724748929999999
  5.6929633419999996  5.5597408210000001  0.4921856240000000
 10.1067418470000003  5.6244984709999999  0.8200983280000000
  9.2579510719999991  0.8804280750000000  8.0022410980000007
  4.6828823630000000  0.6695019770000000  7.4868127769999999
  2.2339481769999998 -0.9973859170000000 10.0369704570000007
  9.8151942410000004  6.5185146530000004  9.5023002170000002
  2.3680950520000001  1.5065996620000000  5.6437870109999997
  7.1024503990000003  1.1312139299999999  6.0065780200000001
  7.8428078750000001  4.9516508190000001  8.0556186279999995
  3.4394326300000002  5.1155875469999996  8.0699250829999993
  7.8325635599999996  2.8931179380000001  9.9381028929999999
  3.5739132880000000  2.5490023009999998  9.5395354040000004
  9.8947620609999998  5.6732978159999998  6.3737363750000000
  5.5876919389999999  5.6695516079999999  6.4078714840000002
