 O Al  P Al  P Al  P Al 
 1.0000000000000000
     8.9022349999999992    0.0000000000000000    0.0000000000000000
    -2.9934304781557333    7.2269527734272856    0.0000000000000000
     1.1765406683786066    3.7056880765092317   10.6156546954878159
  48   2   4   2   6   4   2   4
Cartesian
  2.9316009290000000 10.8205169609999992 10.6005511460000008
 -1.2806128850000000  6.2260896209999999  1.7069815850000001
  0.9363262840000000  5.7257084090000001  2.9839768530000002
  5.3878028720000000  5.7259692710000003  2.9856996040000001
 -1.1374124200000000  5.5555745370000000  4.2993322340000004
  3.3133781660000001  5.5536127229999996  4.2983583850000002
 -0.4197152070000000  7.8104865300000004  3.4675226509999999
  4.0303674569999997  7.8092826579999999  3.4690828489999999
 -1.5165644430000000 10.8226744470000007 10.5982843300000003
  3.1710361919999999  6.2238279949999997  1.7060672210000001
  1.4981206770000000  4.4222244000000002  0.8265362810000000
  5.9474182610000002  4.4298120970000001  0.8250270380000000
  3.8046475540000002  3.6727694170000000  1.9269780390000000
 -0.6494821270000000  3.6723470740000002  1.9252795469999999
  6.3927472139999999  3.1350037110000000  3.2486561890000001
  1.9426217969999999  3.1352076240000000  3.2489854910000000
  1.8636327380000000  1.9459000060000000  5.5121016149999997
  5.6168114039999999  4.3513476569999998  5.2132024289999999
  1.1641173520000001  4.3514916250000004  5.2126501180000000
  4.2490892340000004  2.3800472209999999  4.3495169220000003
  2.4301390160000000  1.2548719710000000  0.8749058310000000
  4.8079674890000001  1.0810963760000001  2.1890435159999999
  0.3554372430000000  1.0824284590000000  2.1879728859999998
  6.8823261459999996  1.2511661500000000  0.8755229369999999
  8.2775164970000006  3.0905578260000000  6.7497151239999997
  4.6383747160000004  5.6761503830000004  8.3294755439999992
  7.5562976280000003  7.4186711960000000  9.0468554730000008
  5.1482203279999998  7.9499712249999996  7.5565205349999998
  5.0545229349999996  8.5649402039999991 10.2774650330000004
  0.6108784480000000  8.5727107819999997 10.2800760919999998
  7.6874471570000003  6.9002754409999998  6.5766041570000002
  3.2409277489999999  6.8967180920000004  6.5718797279999999
  0.1859405590000000  5.6679405020000004  8.3221595920000002
  3.0933474890000001  7.4212976509999997  9.0389408020000008
  0.9945285650000000  6.9184133950000000  5.1892158490000000
  5.4466846489999998  6.9185082990000000  5.1901178979999996
  0.7007130280000000  7.9448913550000002  7.5548825749999997
  3.8275311740000002  3.0882812080000002  6.7484670240000000
  3.2295995430000000  9.7904414160000002  8.2340781009999997
 -1.2169343370000001  9.7888229070000001  8.2334637869999998
  5.7591322729999996  6.1617951670000002 10.5786423920000008
  1.3001109900000001  6.1637702819999998 10.5736591900000008
  8.1326163660000006  3.6126243009999999  9.2174693829999992
  3.6844387610000000  3.6166287490000002  9.2153120540000000
  6.7364593330000000  4.8378325550000003  7.4622398060000004
  2.2883519739999998  4.8376476549999996  7.4600868089999999
  8.6990945499999999  2.3811232050000002  4.3482152249999997
  6.3167947059999996  1.9461808620000001  5.5129550700000003
  3.3627457340000002  1.9802296639999999  2.6640027879999999
  7.8101601560000002  1.9784146370000000  2.6616129009999998
  0.0912900640000000  6.4790600740000004  3.9622812010000001
  4.5423947240000002  6.4784038830000004  3.9641619250000000
 -1.7914837139999999  7.5569083539999999  1.2104539320000001
  2.6594491769999999  7.5546625240000003  1.2105874230000000
  2.3840621999999998  4.8278823839999996  2.5121364110000002
  6.8343725869999998  4.8288516090000000  2.5118396750000000
  1.2078087529999999  2.9707252980000001  4.6369877859999997
  5.6599973570000000  2.9702884410000001  4.6381426780000004
  0.0854567880000000  3.8371702120000002  0.5374959400000000
  4.5370329990000000  3.8374629940000000  0.5374052200000000
 -0.4418227730000000  6.9767866749999996  7.9001228970000001
  4.0064077080000002  6.9800175219999998  7.8993347890000001
  9.1598657469999996  4.8576665419999996  9.9014247569999991
 -1.0856879040000000  9.0199028109999997  9.8300943660000009
  0.5658599030000000  8.7190204199999997  5.9602879320000000
  5.0193930529999999  8.7206908789999993  5.9601250940000003
  7.3658075529999998  3.5319159320000000  7.8905990910000003
  2.9176817890000000  3.5324991369999998  7.8892659219999999
  4.7103682280000001  4.8601765370000001  9.9042239369999994
  3.3587498660000001  9.0176693080000003  9.8294524089999999
  2.2114177019999999  5.6542580359999999  5.8859923600000004
  6.6632244160000003  5.6545425109999998  5.8877387739999998
