 O Al  P Al  P Al  P Al 
 1.0000000000000000
     8.7671039999999998    0.0000000000000000    0.0000000000000000
     0.0232833895111821    6.0879464764281446    0.0000000000000000
     2.6855401783108981    0.1055656797533573   12.7456740680142957
  48   2   4   2   6   4   2   4
Cartesian
  8.9522582889999995  4.8308003470000003  1.9934879700000001
  4.8045152399999997  1.6299755010000001  2.1527710149999999
  7.6323091900000000  4.7070349210000000  4.1256752460000001
  3.0864953730000000  1.6091780110000000  4.2978041969999996
  9.2104278219999998  4.7504908800000001  6.2544616350000002
  4.5342500619999999  1.6826333689999999  6.4480564410000003
  9.4558100080000003  0.0922612200000000  4.1991671430000004
  4.7564836789999996  3.4069011979999999  4.1596563729999998
  6.7642636940000003  0.2335402980000000  1.8591289479999999
  2.3953528560000001  3.0233075220000001  2.0797036009999998
  8.9746045999999993  4.8306913720000004 12.6076388010000002
  1.9294371109999999  1.8330784529999999  0.0398524810000000
  8.9677429550000003  1.8356847770000000  2.0711881069999998
  4.4427082620000000  5.0227783940000004  1.9221679500000000
  7.5489725470000000  1.8520084889999999  4.1104449210000000
  3.1157727500000001  5.0660871079999996  4.2564973860000004
  8.9004223440000008  1.7857238160000000  6.3542944339999998
  4.8373841659999997  4.7804227450000001  6.2630873090000003
  0.9553936159999999  3.5632852910000001  4.1039612569999999
  5.2879743670000003  6.0236215760000000  4.1556689919999998
  6.4842932790000001  3.5586739500000002  1.9708220569999999
  2.2946656769999998  0.4809725150000000  2.0980727080000001
  6.6800406040000002  1.8799815479999999  0.1439752150000000
  2.0631931280000000  4.7783341779999997  0.0307566880000000
  8.3394826840000000  6.0396157600000002  8.3258769370000003
  3.9791653139999998  3.4969543850000000  8.4022590229999992
  5.5449635199999996  0.5074800210000000 10.6166028640000007
  9.9347518980000000  3.0387080300000000 10.3947360930000006
 11.4339922539999996  3.6503056670000000 12.7034880710000007
  4.7920147950000000  0.4836033050000000  0.0289782600000000
  7.6695146809999999  1.6155520180000000 10.3410827500000000
  3.3565721850000001  4.9422500649999996 10.3757074379999992
  5.9883569300000001  1.7501257010000000  8.4527266129999994
  1.8985769950000000  4.7692086979999999  8.2437639810000007
  6.7527814020000001  3.0265674470000001  6.1650781749999997
  2.3845120569999998  0.4134837040000000  6.3138244559999999
  8.3520361879999996  3.4918847190000002  8.3595575790000005
  4.0281399310000001  6.0556305210000003  8.3228443960000007
  5.6471434489999996  3.0502578770000000 10.5673868090000003
  9.8769887070000006  0.4590545510000000 10.5473077899999996
  2.7817200209999999  0.1529108600000000 12.6450835510000008
  4.4718003000000000  3.2932934249999999  0.2473972820000000
  7.6533692120000003  4.8453455779999999 10.3661864480000006
  3.2103758689999999  1.6845099699999999 10.3582250120000001
  6.2692792400000004  4.7641408079999996  8.2187917959999996
 10.3381409640000008  1.7097981959999999  8.4017376430000006
  6.8265043390000004  0.4815916400000000  6.1398422129999997
  2.4468021310000001  2.9782883290000002  6.1824313780000004
  8.1015229130000002  0.3559288900000000  2.9924063890000001
  2.8266649959999999  3.3438807760000002  3.7692365759999999
  9.0745120339999996  4.8272283910000002  4.7378024510000003
  3.1087698270000002  1.6354448690000001  5.8676747740000001
  5.7512262019999998  1.0976317030000000  1.0813667360000001
  0.5709677170000000  4.8245633720000001  0.5026896820000000
  8.0176309870000004  3.3313026639999999  2.9088451380000002
  3.8532337270000001  0.3510390320000000  3.0183715590000002
  7.4705411899999996  1.7802876450000000  5.7146015449999998
  4.6426720520000000  4.7933349029999999  4.7368870500000000
  5.3799048000000003  4.1921457149999997  1.1083280959999999
  1.7093756250000001  1.7516862099999999  1.5699819820000001
  6.2088455629999997  1.7439564009999999 10.0042696560000000
  3.3579330199999999  4.8028357789999996  8.8574326269999997
  3.9268560739999998  0.3450518990000000 11.2525664919999997
  9.8612909309999992  3.4044355120000001 12.0543623360000005
  9.7599327880000004  0.2118137480000000  7.3721327619999997
  5.4118398829999999  3.2480533590000000  7.3563968360000001
  7.7033882499999997  4.7608994300000003  8.8443958479999996
 10.5238821100000006  1.7020661900000000  9.9550728149999994
  5.5795970900000000  3.3980081370000002 12.2739755729999995
  8.2766925520000001  0.1632654950000000 11.2503001450000006
  9.8072629530000004  3.2450222219999998  7.3529408710000004
  5.4641415760000003  0.2055372740000000  7.3243536610000000
