 O Al  P Al  P Al  P Al 
 1.0000000000000000
     8.5055080000000007    0.0000000000000000    0.0000000000000000
    -0.6950155443849939    7.1877822545413288    0.0000000000000000
    -1.0281874066200887    0.1554452383164648   11.5783243688403203
  48   2   4   2   6   4   2   4
Cartesian
  1.9047209549999999  0.6053491680000000  2.8806949400000001
  5.9736956389999998  2.8248383079999999  2.4195245370000000
  1.1114445970000000  4.9440328039999999  4.2458827899999996
  4.0330890769999996  1.6009010570000000  4.4925387760000000
  2.7345311030000001  4.6596756089999998  6.1504714600000003
  6.1933928790000001  0.9568408980000001  5.4896323689999997
  3.2213028150000000  6.2980716460000004  4.3778592999999999
  7.1844071659999997  3.8319955999999999  4.6363278540000001
  7.9150285179999997  1.5979124240000000  3.3996523789999999
  2.8684181099999999  6.5380211680000002  1.7832945060000001
 -0.3338120770000000  6.5830606280000001  0.1246440330000000
  4.0822344440000000  4.5619973690000002  0.9651167530000000
  1.2250654670000001  2.9327229689999998  2.3954494230000001
  5.8226423839999999  0.3719369190000000  2.7656760960000000
  1.6848573590000000  0.2119440700000000  5.2560368039999998
  5.4617166389999996  5.0718372189999998  3.2239544460000000
  2.1002633300000002  1.7450617630000000  7.2463446280000001
  5.5297246820000003  5.2429724520000001  5.7972164629999998
  3.2715722110000001  3.8836763450000000  3.8043999130000001
  7.1884034630000002  6.3536713599999999  4.6217280250000004
 -0.4424984500000000  5.7158765039999997  2.4281171549999998
  3.5917570070000000  2.0632047509999998  2.0242358210000000
  1.0114134730000000  4.6003223029999996  0.6853104360000000
  4.7537362170000002  6.9087532170000001  0.2204019540000000
  1.1166748799999999  6.4948735659999999  7.6874348660000003
  5.3529859269999998  5.9380998480000002 10.2635439030000004
  6.1314841959999997  1.4723529670000000 10.0505681039999999
  1.8525279459999999  3.3433449039999998 10.6190109689999996
  1.5637932619999999  6.0957307990000000 11.0154399230000006
  7.3009731459999996  1.4228533640000001  0.9591656150000000
  0.0540956150000000  1.1332197950000000  9.4525507209999997
  5.6988380059999999  6.9475574370000004  8.0089424610000002
  7.1018328080000002  2.6003381700000001  7.9556912590000000
  3.4185917899999998  6.0890587729999996  8.7516643550000008
  0.9503082150000000  2.6308293319999998  5.3937951860000002
  4.1794689399999996  0.5260808390000000  6.7990479879999999
  1.0241606820000000  4.0546587350000003  8.2290221339999992
  5.3783009159999997  4.5172599059999996  8.3791884329999995
 -0.9455603100000000  3.2674371000000000 10.3553829309999994
  2.6517227790000000  1.1070633780000001  9.8470651260000004
  1.8281564530000001  1.3681386360000001  0.4588074440000000
  7.0760837419999998  4.3290268809999999  0.6571935320000000
 -0.2694974730000000  5.6689822359999997  9.5274445480000001
  4.1962493490000004  2.7414701620000002 11.1155243759999998
 -0.8940777610000000  5.1702120640000002  7.0801211630000003
  3.5160248980000000  3.1218008240000001  8.7756838479999999
 -0.1278648190000000  0.8026070520000000  6.7772043069999999
  4.8531822770000002  2.8739141859999999  6.4191363890000002
  0.3010440200000000  6.5774410530000003  3.8283218340000000
  4.4425291800000002  3.7006681929999998  2.4868290929999999
  2.6484773150000001  4.9481247960000001  4.6592316440000001
  4.8010175170000000  1.4692789630000000  5.7932725989999998
  6.7241282010000001  1.5279274089999999  2.4662955219999998
  3.6452005650000001  5.9708617799999999  0.6291881200000000
  0.2323044660000000  3.1918163559999999  3.8989396670000001
  4.0455780499999996  0.4076264360000000  3.1564641640000000
  1.1116173590000000  1.2914186240000001  6.1158558679999997
  6.3076588859999996  5.0753878779999999  4.4391339260000002
 -0.2912936620000000  5.2728211170000003  1.0056416370000001
  2.0664449569999999  1.7810584480000000  1.8959827990000000
  7.3922326450000000  2.0667181659999998  9.3175862919999997
  4.9383991519999997  5.8896563759999996  8.8132830490000007
  0.9778087970000000  0.2736571580000000 10.7343213419999994
  5.9180012980000001  2.9787920539999999 11.3484799590000005
  3.1479923749999998  0.3122849490000000  8.1754910899999995
  6.2107104949999998  3.8726560970000001  7.0101381360000001
  0.2401296100000000  5.3638099889999999  8.0854610949999994
  3.0677399009999999  2.6168108210000001 10.1274920670000004
  0.5308409670000001  4.4395170320000004 10.6310945429999997
  5.3900058220000000  7.3143821139999998 11.3224506100000006
  2.5202293199999999  3.4871596560000002  7.3860891899999999
  6.3853626280000002  6.8904064109999998  6.3621966849999998
