 O Al  P Al  P Al  P Al 
 1.0000000000000000
     9.3177280000000007    0.0000000000000000    0.0000000000000000
     0.7928973301365303    6.7645120859668335    0.0000000000000000
     2.9218940176003381   -0.7337755929334705   11.1708617640043979
  48   2   4   2   6   4   2   4
Cartesian
  3.6731035049999998  3.3789414259999999  2.5033985510000001
  8.9383269900000002  5.7440012869999997  1.9335362410000001
  3.3577720590000002  1.2131329019999999  3.9732620810000001
  8.4383393830000006  5.4289634629999997  4.2831969550000002
  4.5204461230000001  0.1727307500000000  5.9267836579999997
  9.6015231780000008  4.3890757359999997  6.2367324919999998
  5.5372070520000003  2.1264484100000001  4.8275553039999997
 10.0969060370000001 -0.1052883120000000  3.6647294680000000
 10.5642680379999998  4.1798187400000000  3.2808841790000001
  6.4760486689999999  1.5071396130000001  2.1596002099999998
  4.8660500109999996  1.1823920029999999 10.8651198400000002
  6.8171769610000004  6.4206828199999997  0.6406236020000000
  4.2896490790000001  5.7505323930000003  1.9380672550000000
  8.3314612260000001  3.3724701509999999  2.5051229930000001
  3.7753798939999998  5.4293346329999999  4.2827376499999996
  8.0155099669999998  1.2127008020000001  3.9764032700000000
  4.9425760130000000  4.3886334319999998  6.2343040260000002
  9.1828905459999994  0.1724106000000000  5.9279337270000001
  5.4409290380000002 -0.1060867330000000  3.6664608930000000
 10.1957012710000008  2.1272050930000002  4.8277203660000003
  1.8135719330000000  1.5101441609999999  2.1616070199999999
  5.9058885370000000  4.1790947100000002  3.2861051159999999
  2.1619225210000002  6.4127171929999998  0.6583996350000000
  9.5280105989999999  1.1911002460000000 10.8630457759999999
  4.6250543710000001  2.2275261220000000  7.7045150219999998
  8.6695931799999997 -0.1485951340000000  8.2727964370000002
 11.0138587589999997  3.6824984640000000 10.5151454809999994
  6.9349114800000002  5.9452956580000000  9.5702993480000007
  4.3634485740000004  1.4451397800000001  0.6985874620000000
  0.8910139710000000  3.9022330049999998  0.9225910800000000
  3.9389979540000000  4.1640769390000001  9.5146206990000000
  7.4030064610000004  1.6940958490000000  9.2841530339999991
 11.1460201619999992  4.0884418130000002  8.0471063750000003
  7.0509379509999999  1.4219607720000000  6.9252075270000004
  2.8614559279999998  5.7065617460000002  6.5458768300000001
  7.4214177360000004  3.4757901350000000  5.3835335520000003
  4.0193040099999999 -0.1447876890000000  8.2756002019999997
  9.2841007789999992  2.2230811330000000  7.7048482409999997
 11.5906167000000000  5.9493412970000001  9.5503417969999997
  6.3534140350000001  3.6753499000000001 10.5174793369999993
  5.5561756119999997  3.9076697149999999  0.9264483650000001
  9.0197768610000004  1.4319966570000000  0.6952393420000000
  2.7480237580000000  1.6955943480000000  9.2868280750000007
  8.5959205119999993  4.1569594900000002  9.5117002310000007
  2.3927072749999998  1.4200339129999999  6.9282672590000001
  6.4829595050000002  4.0945650960000002  8.0506066300000008
  2.7622950909999999  3.4743986580000001  5.3817592650000003
  7.5187078429999996  5.7083111359999998  6.5442011410000003
  2.3523937749999999  2.8125931479999999  3.5871681120000001
  7.1081810829999998 -0.1238180780000000  3.0599127679999998
  4.7364320839999996  0.8219676750000000  4.6075574829999999
  8.2227103130000003  4.7801288289999997  5.6027995439999998
  9.4787423870000005  4.3196909110000004  2.2119920120000001
  5.8477966360000000  1.1720058000000000  0.7829220410000000
  2.4472098640000000 -0.1236131310000000  3.0588630850000000
  7.0106367260000004  2.8110059010000001  3.5903363220000002
  3.5627316429999998  4.7789432420000004  5.6019162380000003
  9.3953831559999994  0.8223475290000000  4.6085329630000000
  1.1871504209999999  1.1658056139999999  0.7863942390000001
  4.8237471149999998  4.3240686640000003  2.2146583789999998
 11.7718911429999995  4.4313180470000004  9.4227917429999994
  8.1345057829999998  1.2776081889999999  7.9954180670000001
  4.7781718910000004  4.1375508470000000 11.0542865730000006
 11.1022849390000005  0.7255223830000000 10.3264772580000006
  5.9469033130000000  2.7907000000000002  6.6214564039999999
 10.5118010910000006  5.7252989129999996  7.1522114229999998
  3.4781787949999998  1.2793661320000000  7.9971539519999997
  7.1114757800000001  4.4294735139999997  9.4274578439999992
  6.4441855649999997  0.7279641040000000 10.3312573729999997
  9.4370922250000007  4.1398487519999998 11.0500263709999995
  5.8511036589999996  5.7253041549999999  7.1494491650000001
 10.6058340550000008  2.7885264880000000  6.6218468240000004
