 O Al  P Al  P Al  P Al 
 1.0000000000000000
     9.0459399999999999    0.0000000000000000    0.0000000000000000
    -3.9830507392719023    7.8558810600633171    0.0000000000000000
     2.6615885999538236    1.2029979696096915    9.9967791281129550
  48   2   4   2   6   4   2   4
Cartesian
  6.4162307219999999  4.5573906659999999  1.0321679790000000
  3.4204514210000001  1.2164775299999999  0.9495762340000000
  5.6493050509999998  6.0968341890000000  2.7573007060000001
  1.8534264170000001  3.1823812110000000  3.0952399430000002
  5.6450929680000002  6.5490735960000004  5.2108990229999996
  1.0459425890000000  1.4846816439999999  4.7635504150000001
 -0.9354550650000000  6.6087242780000004  3.8744216890000001
  5.6344446770000003  2.2710666929999999  3.9201167219999999
  1.4394426810000001  0.5714452640000000  2.2666203370000000
  4.2086723399999997  3.7440952169999999  2.1973627080000000
 -1.2849017039999999  6.6406198300000003  1.0897991210000000
  5.5725191000000001  2.2030773450000001  1.1616748969999999
  1.8832224719999999  4.4528366840000002  0.9759331330000000
  1.6740673870000000  7.4942614909999996  0.1214840370000000
  0.8522930160000000  7.7814080079999997  2.6087554449999999
  7.8970502229999999  2.4786715749999999  2.9891868270000002
  1.2872783090000000  5.5363750420000004  4.0155887080000001
  7.5330222449999997  2.2216235260000001  5.4654970690000004
  3.7308828350000001  5.3536529809999998  4.1455253560000003
  2.4998079039999999  3.4894540599999999  5.4363147569999999
  7.8628961070000001  0.5533149120000000  0.9428158340000000
  0.3997970960000000  2.4219625610000000  0.9776827320000000
  6.5201768939999996  7.5475695350000001  9.6467807239999992
  2.3407375650000000  5.4196756910000001  9.7059734609999992
 -0.2057770750000000  6.0527969109999997  6.1996336180000000
  5.0623753730000001  2.9696290040000002  6.2985816300000002
  6.9859418000000000  7.0690037879999998  7.1497488190000000
  4.5746941809999999  3.8693500190000001  8.5872713930000000
  7.0178632810000003  5.0172570700000003  9.6715520940000008
  4.0612878959999996  1.4994714290000000  9.7212535330000005
 -0.1404171800000000  6.6970382300000004  8.5963631809999992
  6.5609787180000003  2.4257821860000002  8.2484563120000001
 -0.1118220810000000  8.6045349430000009  6.8999177979999997
  6.4279331050000001  4.7443752750000003  7.2076163659999999
  1.2041985730000000  7.7310500920000003  4.9875379369999999
  7.0250710920000001  4.3822869060000000  4.3055331790000002
  2.3856754210000002  5.6085971700000004  7.0660417430000004
  9.2840914090000002  1.3428566850000001  7.2970528139999997
  2.3091448940000001  7.6676598570000003  8.4712444139999992
  8.9626402150000004  3.2643496139999999  8.8865765270000008
 -0.2667900400000000  4.6168521719999998  2.1729501949999999
  2.9775445580000000  6.3996343170000003  1.9903122160000000
  4.4760791339999999  6.4262923970000001  8.1672664899999994
  2.1346169310000001  2.7540826580000002  7.9879172169999997
  3.4530378800000001  7.6384637540000000  6.2537991399999999
  0.3055504650000000  3.7158883829999998  6.5034732469999996
  4.2684228050000002  7.9023956489999998  3.7863063289999999
  3.4096457640000000  1.6151932170000001  4.1259687139999999
 -1.7423609670000000  5.5050800799999999  2.5877887839999998
  4.4723758589999996  1.7170181170000001  2.5597265430000000
  4.7711139889999998  6.4252762710000004  3.9455370520000002
  2.1162144740000000  2.4702610950000001  4.3985593959999996
  2.2048670860000001  0.2596968220000000  1.0070369050000001
  5.1496963979999997  3.7133811919999999  0.9532933390000000
  2.6839450600000001  4.7810209549999998  2.6750360569999998
  8.7771432600000008  1.1200545430000000  2.3298125340000002
  0.5931196660000000  6.9363455560000000  3.8432684190000002
  7.0602724139999999  2.8142013650000002  4.1822825469999998
  3.0581823359999998  7.1332208220000002  0.6648820420000000
  0.4531543590000000  3.9880071350000001  1.0124805770000000
 -0.5314034000000000  7.2060491029999998  7.2370782189999998
  5.6487368519999999  3.4404212780000001  7.6017710980000004
  6.1461270660000000  6.2065234699999996  8.5680804320000004
  3.2131755009999998  2.9915340200000000  9.2710638450000005
  7.0692681659999996  5.6280619789999999  5.7290153210000003
  4.6981895070000004  1.4946747410000001  5.4679169800000000
  3.1826610380000000  6.8438819270000000  7.5068134789999998
  9.6860779899999994  2.7662148850000001  7.6533966600000003
  1.2544023900000001  6.7810480789999996  9.5953080090000000
  7.6258910770000004  2.3864768540000001  9.6620038729999997
  1.4283696060000000  4.9170170500000001  5.8098788819999996
  8.6879643259999995  0.8480733630000000  5.6881069059999998
