 O Al  P Al  P Al  P Al 
 1.0000000000000000
     8.9198629999999994    0.0000000000000000    0.0000000000000000
    -4.2764577723878263    7.6730453268521588    0.0000000000000000
     0.0431457879496303   -1.8143800937545298   10.3342714635258872
  48   2   4   2   6   4   2   4
Cartesian
  2.0171492529999999  2.0245527989999998  2.2513059809999998
  6.2823503839999999  1.4604229230000001  2.0945642109999998
  1.4459370110000000 -0.3259737560000000  3.1641172140000000
  1.7128531789999999  6.9425474229999997  3.1866648490000000
  3.5453971050000002  0.4937129050000000  4.2941363120000000
  8.0602199900000002  0.5815400140000000  4.0268959710000001
  1.3818653070000000  1.9573199520000000  4.7160819949999997
  5.9103639919999997  1.8661587680000000  4.5707276659999998
 -0.2170836070000000  1.1367678809999999  1.3141895520000000
  3.9647707919999999  0.4905994960000000  1.7357172030000001
 -1.4612193659999999  3.2091243290000002  0.9194990709999999
  3.9948609400000001  2.9088469049999999  1.1408853200000000
  1.9832612340000000  6.5165291630000004  0.3332110070000000
 -2.0434848940000001  5.8845730119999997  1.3733817319999999
 -0.0680434280000000  3.2214536809999998  3.2421032429999999
  6.1635856190000000  3.9645937039999999  3.0052160930000000
  1.3852624979999999  4.4527989449999996  4.9735078279999998
  5.8355070749999998  4.2300388570000003  5.4271395189999998
 -0.8919172290000000  5.7564367819999998  3.6743382769999999
  3.9409668540000000  5.7792491339999996  3.6333313189999998
  6.3825069870000002  2.8997253960000000  9.6577591490000003
  2.1797212789999998  2.3045915899999998 10.0095366539999997
 -3.5518927350000000  5.1983456209999996 10.0192129950000002
  0.1059663660000000  4.9134001569999999  0.8272250910000000
  1.7934475290000000  1.5784340340000000  7.3417400040000000
  6.2894628729999997  1.5932782790000000  7.2067380710000002
  1.2305618530000000 -0.7582927720000000  8.0287447109999999
  5.9059010949999999 -0.8204666450000000  7.7467689269999997
  2.4919473829999998 -0.4126876980000000 10.2624919850000005
  6.9495721680000004 -0.6642128260000000  9.9752015479999994
  0.0745901570000000  0.8410534270000000  9.1916516599999998
  4.7395595510000001  0.7912724170000000  9.0757745189999994
 -0.3808172270000000  0.5240583430000000  6.6878868100000002
  4.1053883439999996  0.4738610440000000  6.6776124269999997
 -0.6934553240000000  2.9767480470000001  5.6033475519999998
  4.0818204040000001  3.1489497179999999  3.7577109389999999
 -0.1332701430000000  5.4677679719999999  9.1951714930000001
  2.1040415920000002  4.5343641769999996  7.7852099539999999
 -0.2418329870000000  3.1873655360000002  8.3130347709999999
  4.1269576140000002  3.3225682050000001  8.5926436709999994
  2.1799811970000000  4.7063925649999998  2.0955928089999998
  4.5131846429999998  5.1405013410000002  0.9047287270000000
 -2.1788394430000002  4.6268767640000004  7.8462947229999997
  3.4772959260000000  3.0786894990000002  6.2061415870000003
 -0.1919239400000000  5.2931146030000003  6.7198633970000001
  4.1926704360000002  5.3153126110000004  7.0256598580000000
  1.9440404380000000 -0.8352712780000000  5.5305490160000002
  6.7328483680000000 -0.7984876910000001  5.4500771989999999
  0.6261666800000000  1.2539514290000000  3.0273532969999999
  5.0195456790000001  0.7433939790000000  3.1613483339999999
 -1.7321036340000000  6.9365227730000001  4.1102349660000002
  2.9910750159999999  6.8820692870000002  3.9953177460000000
  7.2508400359999996  1.6864312610000001  1.0141907299999999
  3.0939766350000002  1.6417056900000000  1.2754732630000001
 -1.1531717800000001  4.5618231710000003  2.3208332430000000
  3.8788088090000001  4.3676627860000004  2.4558044049999999
  0.4975437920000000  3.2641558900000001  4.7075723839999997
  5.5246575880000002  3.3661261439999999  4.2651266269999999
 -3.0871965929999998  5.7565533159999998  0.3205199710000000
  1.6458330459999999  5.0943498250000001  0.7446963900000000
  0.6815509620000000  0.6553242140000000  7.7196531420000003
  5.2407716530000004  0.5925607220000000  7.6616295389999998
  0.8403758430000000 -0.7746834230000000  9.8893615540000006
  1.6336693600000001  5.7250714729999999  9.2550710320000000
  2.8524409110000000  1.4607238670000000  5.8476964239999996
  7.3354633429999998  1.4115387950000000  5.7422775100000001
 -0.6841525040000001  4.6347409820000003  8.0132095979999995
  3.5404000990000002  3.9968950539999999  7.4042843940000003
 -0.8359292290000000  2.3425241410000002  9.7597842759999995
  3.9459361579999999  2.1137335560000001  9.8801403170000004
  1.4942667850000000  5.6318851329999999  6.3463969709999999
 -3.0124556100000000  5.5725192420000003  6.6367751220000004
