 O Al  P Al  P Al  P Al 
 1.0000000000000000
     8.9281299999999995    0.0000000000000000    0.0000000000000000
    -0.0577122125775148    6.0303018427441435    0.0000000000000000
    -2.4539405894143540    1.8552679201691458   12.6287738225308317
  48   2   4   2   6   4   2   4
Cartesian
  1.6740332520000001  2.7592764810000001  1.8544236990000000
  5.8413423470000003  5.1551066109999999  1.9662760790000000
  5.6698622130000000  0.8620616600000000  4.0695408159999999
  1.0440631739999999  3.8047418300000002  4.2602594880000000
  7.2318601910000000  6.8119982730000004  6.0636186360000002
  2.4580768520000000  3.9056088820000001  6.3700620660000000
  7.7781694610000001  2.1991764269999998  4.1338700370000003
  3.2002330489999999  5.6723518530000003  4.3042734249999999
 -2.0617042369999998  6.8227997709999997 12.0052201319999998
  3.9353869260000001  0.8690149160000000  2.1765775949999999
  5.3472726960000001  4.3167376620000004 12.5689380279999998
  2.4209679110000000  2.1744019570000002 12.5948903619999992
  1.3680895989999999  5.2485752510000001  2.0331301310000001
  8.1963759480000000  3.7094725679999998  2.0790660420000000
  5.4241045010000004  3.9033030549999999  4.2113058959999998
  1.2106742420000001  1.0438169470000001  4.1349782829999997
  6.9335200950000004  3.8894096010000001  6.2702816449999998
  2.6614261959999999  0.9326347080000000  6.2531092570000002
  7.7617770119999996  5.6849822970000004  3.8158058330000002
  3.3715125680000000  2.1854449880000000  4.2280564570000001
  8.5229090999999997  1.3064759429999999  1.9393153400000001
  3.6698090319999999  4.0377769509999997  2.4502188060000001
  7.3129070289999998  5.8384413810000000  0.2958094280000000
  4.0888041050000004  2.5086744710000000  0.3970251170000000
  6.3861378400000000  2.1577684220000002  8.1662291650000007
  1.9087572440000000  5.6356446179999997  8.4107735340000005
  4.1636348339999998  2.6538267090000001 10.6096757660000005
 -0.1999899830000000  4.8383369549999999 10.8038173489999991
  2.3833092159999998  0.7837681620000000  0.0823599030000000
  3.1486921159999999  6.0090427569999996 12.2030062279999996
  4.3798837309999996  5.1258937290000004 10.2902694740000005
  1.1344240820000000  6.7777907649999998 10.4719327979999992
  3.7765919669999999  3.8194845320000002  8.3957468859999995
 -0.2578029950000000  6.8390533849999997  8.2073542009999993
  4.7791051610000004  5.1524960550000003  6.2659155760000003
  0.3846732560000000  2.6325227629999999  6.3422882600000001
  6.3563126109999999  5.6371425899999998  8.2646487050000008
  1.9130960859999999  2.1236496929999999  8.5103328590000000
  2.1593914569999999  4.0263453179999997 10.4183251089999995
  6.5757572000000000  3.8443852070000002 10.5490871550000005
  2.8021894020000002  4.3859733890000001  0.1934163740000000
  6.1437164820000003  2.2857059810000000  1.8948871510000000
  5.7204005779999996  7.0019291389999996 10.1279062240000002
 -0.5288960370000000  2.3456800740000001 10.2016637390000007
  4.1803192500000002  6.9068610359999996  8.1271855350000006
 -0.6974419910000000  3.9611205379999999  8.4453004549999999
  4.7734791330000004  2.6254012659999999  6.2719190370000000
  0.3257700550000000  5.1524156330000004  6.2173169899999996
  4.7625196140000003  2.4253482549999998  3.1488349720000000
 -0.4248266390000000  5.5033908350000003  2.1594214219999999
  7.1886731629999998  0.8595453260000000  4.5001480620000001
  1.0156555810000001  3.8909793200000000  5.7671687629999999
  5.8653684269999999  5.3106901420000003  0.4660643250000000
  3.7069681449999998  1.1228944400000000  0.6813717020000000
  0.4973268070000000  2.4324650700000001  3.2669964130000002
  4.6134505499999996  5.4173392209999998  3.2776036400000002
  5.4452382920000000  3.8801227699999998  5.7995878909999998
  2.6183688040000002  0.9527304280000000  4.6823191150000003
  7.5647786999999997  2.4543029449999998  1.4477183960000000
  2.3221392230000002  4.1115812299999996  1.6609438240000001
  3.5930031929999999  3.8894248590000000  9.9547723660000003
  1.1687805389999999  6.8658994919999996  8.8813465080000000
  5.7178307950000002  2.2990721939999998 11.3800421309999997
  5.8504809660000001  5.4685965840000001 11.2287862900000004
 -1.0941428030000000  2.3568333550000000  7.2022142960000002
  3.2782450230000002  5.3917150789999999  7.2653571819999998
  5.6428607570000002  6.9196354920000003  8.5978828620000005
 -0.8736255150000000  3.7827032379999999  9.9750836429999996
 -0.4135072970000000  7.2889246979999998 11.5817962520000002
  1.5447892310000000  5.2757040719999999 11.5163739449999998
 -1.1172151239999999  5.3865077090000000  7.2270390569999998
  3.2682566479999999  2.3920788439999998  7.2995910259999999
