 O Al  P Al  P Al  P Al 
 1.0000000000000000
     9.5355319999999999    0.0000000000000000    0.0000000000000000
    -1.2928880367798450    6.6483054035036302    0.0000000000000000
     2.6751111018122464   -1.5288474286570435   11.5857779479408975
  48   2   4   2   6   4   2   4
Cartesian
  9.3887893610000006  0.9902021519999999  1.8566286009999999
  7.1640960890000001  5.2938454869999996  2.1271341760000002
  4.5414405929999999 -0.5727733870000000  4.5408896370000003
  8.6581468350000002  1.9022833269999999  3.8001977619999998
  5.3562242080000004  5.4008400139999999  5.7116293860000003
  9.1881712909999997  2.9057306089999999  6.0442136780000002
  6.6580004060000002  0.0472552200000000  3.5027860830000002
 -0.0509362490000000  4.2907593469999998  3.4768177769999999
  6.4718787359999999  2.8564835369999999  2.1976941189999999
  3.8436283400000000  3.4783216870000002  1.1802473060000001
 10.8497431479999999 -1.0521611230000001 11.4135065600000001
  4.4120333000000000  2.6923130860000000 11.5764083140000000
  2.3369888710000000  5.2871347269999998  2.1103458140000000
  8.1801380130000005  0.3024413150000000 11.3734000680000005
  3.8860270720000001  1.9089495550000000  3.8975399479999999
  9.2755024240000008 -0.5633066560000000  4.4358872480000002
  4.3918616810000000  2.9474541410000001  6.1700002979999997
  0.4402760390000000  5.4058107059999996  5.5951200319999996
  4.7243877610000000  4.2707341750000003  3.6030441510000002
  1.9183840850000000  0.0725021300000000  3.4552892829999999
  4.5946482380000004  1.0030499150000001  1.8881385900000001
  1.7006252239999999  2.8478570410000001  2.1079928570000002
  8.5579709299999998  3.4017983169999999  1.1234995649999999
  6.1489536679999999 -1.1692882769999999 11.4029503909999992
  4.9948860560000004 -0.1754839350000000  7.1815240559999998
  7.2717197720000000  4.5843535390000003  7.3156702649999996
  2.7859722300000000  2.8484093540000002  9.8315393899999997
  7.5657919560000000  2.8064584770000001  9.6409896550000003
 -0.3122827610000000  6.0467185010000000  0.2172543770000000
  6.4848547600000002  4.1960388049999997  0.0701188920000000
 10.4002181359999994  1.3803092500000000  9.6665798239999994
  9.3822043819999994 -1.1466997740000000  9.4908690759999992
 10.0203805589999995  3.8760054369999999  9.5388256859999991
  7.5245509779999997 -0.0354609160000000  8.3455192329999992
  2.2160173150000002  3.4224298919999998  5.0661202830000001
  7.6299219989999996  1.0213103580000000  5.7751335770000001
  3.2455360600000001  5.3305824279999996  9.3912576810000008
  9.8231179530000006  0.1046595050000000  7.4097343059999998
  1.5903411160000001  2.6667563130000000  7.6672497550000003
  5.2184072859999997  3.7497898269999999  9.2708887610000001
  3.3791902619999998  0.2786062330000000 11.3115157699999997
  4.5159483119999999  6.0674852730000000  0.2548178430000000
  3.1421431300000000  0.6010150520000000  8.6139699140000001
  5.5388426920000002  1.2940881230000001  9.6733700559999996
  1.6212438990000000  5.2273370860000004  7.4865710080000003
  6.3023049789999996  2.2781737409999998  7.5684041999999998
  2.7176738079999998  1.1341425780000001  5.8501791499999998
  6.9123375989999998  3.2459225379999999  4.9837753960000004
 -0.0008075560000000  2.8162703019999999  2.4900992369999999
  8.3600421130000004  0.1213659050000000  3.1086021520000000
  4.6766890099999996  5.5907456370000004  4.3177861279999998
  8.1021134240000006  2.3247299890000002  5.1922446219999996
  7.1569979280000000  3.9772625160000001  1.4027368280000001
  0.1101762260000000  0.6007964360000000  0.3763826710000000
  3.6508099210000000  0.0889118820000000  3.1552125310000001
  4.7611030779999997  2.8200068479999998  2.5558967190000002
  3.3160522069999998  2.3904847739999999  5.2728648109999998
 -0.1436797570000000  5.6131148220000000  4.1706391680000001
  4.8414110719999996  0.5899331220000000  0.3846193750000000
  2.4257736030000001  3.9799499400000000  1.3760633369999999
  1.3675368459999999  2.7247306729999998  9.1683458519999999
  8.8073033929999998 -0.8021460570000000  8.0905324019999991
  3.8633497370000001  1.4558037650000000 10.1866880309999992
  3.8599246410000001  4.2340409120000002 10.6364798650000001
  6.5532914590000004  0.5259101940000001  7.0099237230000000
  1.0945452570000000  3.8387965930000001  6.3685040419999996
  4.0207841819999999 -0.6149488030000000  8.2225989120000005
  6.1801894260000001  2.5771655039999999  9.1211512859999999
  8.5128255290000006  3.9646995110000001 10.6261731279999996
  9.7440255140000005  0.1926720310000000 10.6724796130000001
  5.9573105010000003  3.7901737270000000  6.3738029110000003
  1.9326134820000000  0.0840246960000000  6.9329686160000001
