 O Al  P Al  P Al  P Al 
 1.0000000000000000
     9.4841540000000002    0.0000000000000000    0.0000000000000000
    -4.3528613311806454   11.0675568378893932    0.0000000000000000
     2.0804129085206933    1.1738573099332830    6.5083676474960033
  48   2   4   2   6   4   2   4
Cartesian
  0.5059958120000000  0.9553628150000000  1.6493591679999999
  1.6759197400000001  9.3850480170000008  5.7403024169999997
  2.7670600649999999  0.8522395040000000  2.5860061600000002
  4.3922481539999998 10.2759969099999999  5.8030432899999997
  9.1151203790000004  2.0463848069999999  4.3273919750000003
  4.7839295010000003  8.5916569070000008  3.9823714689999998
  5.9789204079999996  7.9014266400000004  6.2447273619999999
  6.1220956250000000  3.5366442810000001  4.1648974020000002
  2.3679330520000001  1.3733847189999999  0.0996277830000000
  8.5272847209999991  4.4676055300000002  3.9140784190000000
  7.4828373069999996  8.6473292829999995  4.0005538080000003
  6.4858303199999998  6.3847692790000004  4.0344988920000002
  1.5959637400000000  5.3083905109999998  4.1013184049999998
  6.6996655780000003  1.6993150650000000  2.4924927559999999
  4.6860411690000001  1.4640210210000000  3.8381114890000001
  3.3446712900000000  7.4183630139999996  6.0186484599999996
  5.4897091560000000  5.3990788869999999  6.3816024090000001
  7.9977866750000004  5.8270120280000004  6.2994181480000000
  7.2238706490000002  0.4409442220000000  0.2460818220000000
  0.6326886560000000  8.1170928359999994  1.7361850790000000
  2.8546445160000000  4.9171498260000002  6.1529607759999996
  2.0768342139999998 10.1845116729999994  2.0700646709999999
 -1.7728678350000000  7.1766784609999998  1.9759410860000000
  0.0866652260000000 10.5936659379999991  0.9740685740000000
  9.8659330129999994  3.8501456420000002  5.9583579919999998
 -2.3517201000000001  9.6032544330000000  1.5734626759999999
  8.4503471730000008  8.9761544499999992  6.4485960220000003
  5.1563474530000004  6.3342662460000003  1.7874093190000000
  4.7358625470000000  3.8687422450000000  1.9417065250000001
  1.8402564560000001  1.8881180849999999  5.4309112730000004
  3.4321669159999999  8.1830126150000009  1.7062516020000000
  0.0601691600000000  9.9538759619999997  3.4130053829999998
  0.2657281780000000  5.2641461910000000  1.8535239109999999
  5.0825447300000004  2.2608664470000002  0.1538847350000000
 -0.4196885200000000  6.8026322360000000  3.9497968200000000
  6.6762213040000002  1.0603535650000000  4.9330371470000003
 -0.4664614150000000 11.2105843000000007  5.6578302420000002
  7.1727298770000001  4.8409404800000004  1.9406882740000000
  8.7603938859999992  2.9989603339999999  1.8910694830000001
  4.1397563359999996  5.7256168079999998  4.0989148269999998
  3.9952134209999999 10.8029297639999999  3.3188989389999999
  3.3232811099999999  3.4614174460000000  4.1860549359999997
  6.2579111259999998 10.6928394820000001  4.2584652299999997
  2.0187538489999999  7.7739289400000002  3.9516295440000002
  4.9192296480000000  9.7669909890000000  0.4801904820000000
  2.6123103570000001  5.9212558560000002  1.7900602080000001
  1.9726070220000000  3.0621341709999998  1.9132061770000000
  0.8344055800000000  6.9940199520000004  6.0998428300000000
 -1.9115970990000000 10.2474788110000006  3.1704974429999999
  1.1404778330000001  6.7005005039999999  2.8043771199999998
  2.9624371379999999  4.8192452410000000  4.6557942770000000
  1.9790713490000000  7.9149255079999996  5.4603722450000003
 -3.1746291449999999  9.2483126410000001  0.3727816100000000
  9.9323540119999993  2.4032745109999998  5.5310875319999999
  3.2225802479999999  9.6765694920000005  0.7269731189999999
  1.7717487050000000  4.4934054149999998  0.8988572120000000
  4.7746388399999997  3.7304919280000002  0.4321339360000000
  6.1013059749999998  2.0548862990000001  3.9043502170000002
  8.5805773349999992  4.3662678789999996  2.4263949490000001
  3.7905993150000001  6.8258799550000004  1.2331325719999999
  1.9028257630000001  1.5757847279999999  1.5506385279999999
  0.6599967220000000  9.5976990830000002  2.0023270730000000
  3.5358215720000001  1.9745601040000000  5.1761740669999998
 -0.0345227720000000  5.3802784519999998  5.1512477240000001
  1.0663270830000000 10.7702110510000004  4.8216381669999997
  8.6724815310000007  1.4043562629999999  2.7308407269999999
  7.6577846770000004  7.2804205949999998  3.4633755659999998
  4.8586329709999996 10.0761041680000005  4.3521513589999996
  5.6933599040000002  0.8845192230000000  1.0841116110000000
  5.6128605199999999  4.9452028459999999  3.0865116330000002
  4.9805554839999999  7.1549407199999999  4.9887517529999998
  6.7859032929999996  6.2664372589999999  0.7392925910000000
