 O Al  P Al  P Al  P Al 
 1.0000000000000000
     8.6934579999999997    0.0000000000000000    0.0000000000000000
    -4.3213161825086814    7.5913952352010110    0.0000000000000000
     0.7983001259862034   -0.7202922935376426   10.6272531293267249
  48   2   4   2   6   4   2   4
Cartesian
  2.4439718140000002  5.2702394689999998  0.8121743820000000
 -1.9467397740000001  5.7137267170000001  1.5895780040000000
  2.3031418090000000  5.8632403780000004  3.5037496780000001
 -1.6098267660000001  5.7556323340000004  4.2858239989999998
  1.4474837370000000  6.4419859690000001  5.7578504429999997
  1.7027095539999999  0.2923642390000000  3.5691377840000000
  4.4940782659999998  4.6509927729999996  3.6936130970000001
  0.5334807740000000  4.2511376690000002  4.9214250289999999
 -2.6213131270000001  6.0579660410000002 10.3908982919999993
  0.3836142250000000  4.8412987760000004  2.0176023889999999
  4.4390256959999999  6.6109897459999996  2.0776839439999999
  1.3374007310000000  3.6200301399999999 10.2230514869999993
  4.7593101920000001  1.9246492529999999  1.4574487819999999
  0.2905476130000000  1.4890919160000000  0.8653644200000000
  4.5901799490000004  2.2147390900000001  4.2356808980000000
  0.3683074360000000  2.4129064119999999  3.2727192810000001
  5.8625464830000000  3.8166910889999999  5.5882576060000000
 -0.4061805370000000  2.1027720329999999  5.5352126330000004
  6.4455969819999996  0.6374484060000000  4.2219284039999998
  4.1414093000000003 -0.1960154600000000  3.0974492130000000
 -1.6566700440000000  2.9243897859999999  0.1579620840000000
  2.5733210149999999  0.8235643550000000  1.0519803040000000
  7.0185692919999996  1.0280122599999999  1.9712885000000000
  3.7493526920000000  2.0716086480000002 10.4240062560000002
  3.1058340339999999  4.6312634929999996  6.5800508459999998
 -0.7074587140000000  5.2784160050000004  6.9448377839999997
  3.2725709470000002  6.9248586720000000  7.7156572829999996
  3.2853521909999999 -0.5500784070000000  8.7662745209999997
  0.5641732600000000  6.7638343909999996  0.2508552040000000
  4.7102890989999997  4.5829134869999999  0.7812849460000000
  3.6039818119999998  4.9689619580000004  8.9887539319999998
 -0.9033756220000000  4.5197067679999998  9.2827368670000006
  5.3631109779999999  5.6696906059999996  7.2817556640000003
  1.0832950410000000  5.7360172929999997  8.2930974759999998
  6.5465934150000002  3.3508037929999999  3.2162880500000002
  2.1705090050000000  2.4600106760000000  5.1480695450000002
  5.5211452669999996  1.4911666969999999  6.7519340999999997
  1.1887268810000000  0.6842301380000000  6.8856539019999996
  5.4693789549999998  3.1652770380000002  8.6925295069999997
  1.0206353810000000  3.1946004280000002  7.6441743500000001
  2.7669544149999998  3.1377880000000000  2.2598312389999999
  7.9484783410000004 -0.2502297390000000 10.1811006529999997
  5.6576239189999997  0.7011795190000000  9.1582077670000004
  1.3891631520000001  1.3654152790000000  9.1645363220000000
  7.5413348259999999  1.9231091440000001  8.0678598180000005
  3.2341283719999998  2.0122003450000001  7.5430883470000003
  3.8841895590000002  6.9792726920000003  5.2498425920000003
  3.3514137499999999  0.1154744250000000  5.4796931779999998
  3.2781016730000001  4.8941406719999998  2.4080844720000001
 -1.1222451980000001  4.7354329990000004  2.8184092770000002
  2.4472641319999999  6.8156571560000003  4.6754117669999999
 -1.3352236280000001  7.3141317050000003  4.0622575510000001
 -3.3113425489999999  5.9557360790000002  1.0142682089999999
  0.8902342780000000  5.3306022679999998  0.6652877520000000
  5.4169240260000002  1.0628640330000001  2.8644331489999999
  0.2976845040000000  0.7852083760000000  2.5864005610000000
  5.3702594350000004  3.5468662580000001  4.1846163750000001
  0.7297629070000000  2.7375230290000001  4.7260548550000001
  7.4429564900000003  1.5264461330000001  0.5685158320000000
  3.2822695249999998  2.1770743860000001  1.1891841630000000
  3.8913261970000002  5.4893503849999998  7.5613413769999998
 -0.4686167960000000  5.6916502710000003  8.4412601190000007
  2.1809164420000000  6.7405828000000003  9.3687722089999994
  2.3442784610000000  0.1549047500000000 10.1718425579999998
  1.2408261709999999  4.8385574929999997  6.5075481899999996
 -2.1689099889999999  5.3662671179999997  6.0126132119999998
  5.9592139289999997  1.8247679580000000  8.1833566470000001
  1.7584614550000000  1.8052065040000000  7.7263526249999996
  4.3508251350000000  3.6937717170000002  9.9950996070000002
 -0.0516644570000000  2.9380766110000001  9.3169483290000006
  3.8741365060000001  1.7541667740000000  5.8978800130000000
  8.1267267519999997  0.7082391830000000  6.5835143530000000
