 O Al  P Al  P Al  P Al 
 1.0000000000000000
     8.8334399999999995    0.0000000000000000    0.0000000000000000
    -0.0255213689045323    5.8268641091181497    0.0000000000000000
    -0.4053730319997839   -1.4041917112652662   12.9613905649804888
  48   2   4   2   6   4   2   4
Cartesian
  1.9711375730000000  4.1567983990000004  1.9410871980000000
  6.3327739430000003  1.3705108859999999  1.9215595960000000
  1.3422931149999999 -0.0259722280000000  4.4144120979999997
  6.1461709400000002  2.7400219369999999  4.1557105690000000
  3.0674259330000000 -0.0008775370000000  6.3889233509999999
  7.5342730849999997  2.7506925750000000  6.1867790590000000
  3.8515532559999999  1.6142380350000001  4.3335593059999997
  8.2734262110000003  4.0937226679999998  4.2428563710000002
  8.2069388809999992  5.5432335630000003  2.1088822600000001
  4.0420952589999999  2.5421386460000002  2.0315228680000001
  7.2269560540000004  2.9662831650000001 12.8649479099999997
  3.3207921549999999  1.3452930759999999  0.0143997240000000
  1.7516603799999999  1.4502154510000000  2.0375222430000002
  6.0232024669999999  4.3171197039999996  1.9131068120000001
  1.7781470290000001  2.9804355089999999  4.3733476140000000
  6.2538809989999997  0.0974965370000000  4.2758289019999998
  3.2940047159999999  3.0395399140000001  6.2640764840000003
  7.5709510230000001 -0.0321444820000000  6.3053332739999997
  3.9403731970000000  4.1624263250000002  4.0397159479999996
  8.4277431919999994  1.7423934230000000  3.9875579270000001
  8.2644469600000008  3.1097703129999998  1.8839260609999999
  3.9650219330000001  0.2050886990000000  2.1872990309999998
  7.3486607040000003 -0.0096947720000000 12.8782659610000003
  2.9577831770000000  2.9009826799999998 12.8918252189999993
  2.1852134379999999  4.5361786769999997 10.8686961620000009
  6.5990641449999998  1.2695674240000001 10.7546721020000007
  8.0667743919999992  4.1517780110000002  8.5975068879999998
  3.6422210229999998  1.6433939220000000  8.6202181630000005
  0.7109358560000000  1.6508168379999999 12.8363391290000006
  5.1402148289999996 -1.2600336830000001 12.8695768120000000
  0.0790265500000000 -0.0142164480000000 10.9132633929999994
  4.2856710859999998  2.9041954390000000 10.6967258760000004
  1.5539133839999999 -0.0093206070000000  8.8567621649999992
  5.7128839249999999  2.9034602450000002  8.5474688469999993
  0.9593379420000000  4.5565055990000003  6.5500419670000003
  5.3874930670000003  1.1793150260000000  6.3976067240000001
  2.2272686859999999  1.2487279990000000 10.8723966159999996
  6.5894380129999996  4.5494955849999998 10.7630083089999999
  8.1038364590000000  1.6179992630000000  8.6229838450000003
  3.6613652509999999  4.2014652879999996  8.6460669439999993
  0.7013038960000000  4.1409700520000001 12.9361310819999993
  5.1604190089999999  1.2427974680000000 12.8614166650000001
 -0.2200617860000000  2.9142922580000001 10.6912385000000008
  4.4711260599999996 -0.0095856460000000 10.6705869159999995
  1.3400081850000001  2.9137151220000002  8.6597766840000006
  6.0972766240000000 -0.0187120230000000  8.6853620080000002
  0.9985553400000000  1.2979089260000001  6.5063939309999999
  5.4292463209999999  4.5013390519999996  6.2621719169999999
  4.2517648430000001  4.2843823109999999  2.2771924680000000
  5.2694252119999998  1.3657988420000000  3.3116003709999999
  1.6090901590000000 -0.0008413720000000  5.9100044440000001
  7.5605536380000000  2.8381284299999998  4.6659185540000001
  6.2548158689999998  1.3909366299999999  0.4265026910000000
  1.8029406820000000  4.2854777449999997  0.3996380480000000
  0.8902735830000000  2.8307516609999999  2.8442169380000002
  8.4183400919999993 -0.0269068740000000  3.8543057740000002
  3.2732568430000000  2.9644363249999999  4.7136451929999996
  6.1036345980000002 -0.0322230200000000  5.8315742640000003
  7.4801116820000004  4.3454999709999997  1.4893041000000000
  3.1634877750000001  1.3733370439999999  1.5390895410000001
  1.5524962899999999 -0.0152161240000000 10.3934470930000007
  4.3054779040000000  2.9135069069999999  9.1124499149999991
  8.0390709260000008  4.3605682180000001 11.8508008940000007
  3.7365502700000000  1.4362697620000000 11.7971203219999996
  3.2526873420000002 -0.0021167850000000  8.1496197969999997
  1.6228344560000001  2.9298415080000000  6.9062737539999999
 -0.1078353910000000  2.8992417079999999  9.1277544190000004
  6.0020471190000002 -0.0116242140000000 10.2049481439999994
  8.0215699279999999  1.4780821360000000 11.8465521119999995
  3.7010595710000000  4.3604754730000002 11.7918900969999996
  5.8456133660000003  2.8521367030000002  6.7931125999999997
  7.8893805639999997 -0.0223839530000000  8.0577283860000009
