 O Al  P Al  P Al  P Al 
 1.0000000000000000
     8.5969379999999997    0.0000000000000000    0.0000000000000000
    -4.0528391530450198    7.8817701436888736    0.0000000000000000
    -0.0092755744107682   -2.0749944574964281   10.4061221548289780
  48   2   4   2   6   4   2   4
Cartesian
  3.8008009359999999  0.9158978440000000  1.4612944500000000
  5.9208581110000003  2.3373943690000001  2.1413199239999998
  1.6120596670000000 -0.3859744240000000  2.9447728600000000
  5.6612412890000003 -0.3012308230000000  2.9132615639999999
  3.5082148620000000  0.5635265080000000  4.1149416590000003
  7.7482854190000001  0.5420977430000000  4.0355779639999998
  1.5388348150000000  1.9650504129999999  4.8325571500000004
  5.6942060479999999  2.0044213350000000  4.5719050520000000
  7.6764491440000002  0.7032236610000000  1.4545461900000001
  2.7114374560000001  0.1678304640000000  9.9539841599999992
 -0.6552146080000000  3.1648676679999999  1.0030791109999999
  2.2216876390000002  2.7521802009999998  1.9628684890000001
  1.7779545310000000  6.9831198140000001  0.2701926310000000
  5.2044325799999998  6.4446441070000002  0.3962149320000000
  0.0190260620000000  3.3702778489999998  3.4146042799999998
  3.9978756290000002  3.4353912510000000  3.6333029959999998
  1.4040660990000000  4.4061378009999999  5.2323754210000004
  5.6232455440000004  4.4751494090000001  5.2141161220000001
 -0.6114966130000000  5.9320465789999997  3.6248949160000001
  3.7404765690000001  6.2254405390000001  2.9133023709999999
 -2.4880855450000001  4.8571441059999998  2.0663916269999998
  1.4359783209999999  2.4741251640000002 10.0660856390000006
  6.2537915560000004  2.3389866700000002  9.9587003470000006
 -0.3358536340000000  5.6208629600000002  0.8243889760000001
  1.9126907600000000  1.3194290460000000  7.5418080539999997
  6.2185674180000001  1.4756277920000000  7.0138690669999999
  1.3473470240000001 -1.0779165110000000  7.8714502629999998
  5.8677608440000002 -0.8604891080000000  7.7339230920000004
  1.4013916920000000  0.7267268360000000  0.6716930990000000
  6.2276462570000000 -0.3203786900000000 10.1908746630000007
 -0.0770803310000000  0.5956786630000001  8.9639395700000009
  4.5179099450000004  1.0706248020000000  8.7137858080000008
 -0.1527377580000000  0.2857444320000000  6.4690208110000000
  4.0808169950000002  0.1405774730000000  6.4778420870000000
 -0.5565475650000000  2.9041513229999998  5.7332626570000000
  3.8537919669999998  2.7630850730000001  6.0078106550000001
  1.2646477990000000  4.8422921590000003  8.1251183739999995
 -3.0309787039999998  4.4401804760000001  7.9380923430000001
 -0.4945623360000000  3.1259007240000001  8.3318302410000005
  3.3721639670000001  3.3389590930000002  8.5951286140000001
  1.6277953340000000  5.1874938049999999  2.0853848909999999
  4.0240935999999996  4.3392232269999997  0.7830092690000000
 -0.9280077970000000  5.3877604420000003  9.3089395380000006
  3.8641080350000001  5.6874249209999999  9.1094838970000005
 -0.6983650020000000  5.2236135760000000  6.8295058239999999
  3.5111327139999999  5.1534619299999997  6.7586624100000003
  1.9806184060000001 -0.8417646110000000  5.3505730199999997
  2.3344452260000002  6.7495238280000001  5.1111764380000002
 -3.7169477560000002  7.5025966060000000  1.8399788020000001
  4.7956562060000003  1.2350191589999999  2.9575389510000001
  2.6383776000000001 -0.7275226640000000  3.9635408929999998
  6.8652752709999998 -0.6734827000000000  3.7461151570000002
  6.9487947410000004  1.9642352720000000  1.1088332059999999
  2.6011243300000002  1.7003990630000001  0.9525468030000001
 -0.7147124750000000  4.6015407489999998  2.4059700810000000
  3.1224094490000001  4.2905343110000000  2.3905351800000001
  0.6172144380000000  3.1773803880000000  4.8029962399999997
  4.8109735090000001  3.2348086089999999  4.9242774459999996
  5.4605423909999997  4.9311595840000004  0.6948534190000000
  1.2136103250000001  5.6785037430000003  0.7057904739999999
  0.6849714590000000  0.3354578330000000  7.6966857849999997
  5.1522576469999999  0.5220691210000000  7.4905278329999998
 -2.7107477850000001  5.7010672009999999  9.4507573839999992
  6.1332357990000004 -1.8165986100000000  9.3281684509999998
  2.8407073420000000  1.2687199870000001  5.8175829539999997
  7.2522060909999997  1.3525002250000000  5.5833734230000003
 -0.2828676480000000  4.5988834389999997  8.1660327759999998
  4.0241102809999996  4.5402468499999999  8.0379816460000004
 -0.5655435500000000  2.0939830769999999  9.8026688679999996
  2.9484349719999998  1.7405165020000000  9.1998824700000004
  1.8243531840000000  5.6469387099999997  6.3995929489999996
 -2.3701999340000000  5.6134513060000000  6.4307225819999996
