 O Al  P Al  P Al  P Al 
 1.0000000000000000
     8.7435609999999997    0.0000000000000000    0.0000000000000000
    -1.6563094259706777   10.8359123645064912    0.0000000000000000
     3.1811531016377548    0.7099548487734856    7.1619746252254002
  48   2   4   2   6   4   2   4
Cartesian
  7.8410475799999997  4.5977548519999996  0.8378544680000000
  5.2425541229999997  2.5654667910000000  2.5070573729999999
  6.9914307100000004  1.0452063530000000  3.3533268980000002
  3.4634526790000000  3.9065111460000002  1.2230498230000000
  6.3850082490000002 10.2564388480000002  1.6806815680000000
  3.6039538100000001  8.0252108989999993  3.3274050489999998
  3.9190837880000000  9.0119064449999993  1.0421917830000000
  2.7668316690000001 10.0832768080000008  5.8274404180000001
  5.9978124010000000  0.9148426100000000  0.4760195350000000
  1.5900652620000000  0.2799181050000000  0.6008366310000000
  9.2312387640000004  2.3519015950000002  5.2620780729999996
  5.2413211280000001 11.1143663769999996  6.4666209659999998
  3.6021975220000000  0.8532468210000000  1.5159531110000000
  5.6393443650000004  3.3883174320000000  0.1755357490000000
  1.3974161329999999  6.8686835679999998  2.6191045460000000
  1.1987399409999999 10.8601434240000003  4.0765743560000001
 -0.4895460360000000  7.1735587580000004  1.1044770530000001
  4.7904591170000002  1.4462217970000000  4.8330320970000002
  9.4682040640000000  0.5955394870000000  3.2286614500000002
  1.0492921190000000  4.3559847590000000  2.3360812069999999
  3.7290917179999998  6.5751990400000002  1.2961177450000001
  8.4361631579999994  2.4566915930000000  2.0886429490000000
 11.2719635579999995  1.3346881360000000  6.3844901549999999
  1.1367451289999999  9.1538313910000007  1.6700272249999999
  2.6528457880000000  2.8624886830000000  3.6900793070000000
  7.4108690970000000  6.1499020519999998  3.4548110840000001
  9.2422606060000003  5.2300466090000004  4.8082816250000002
  3.0526201049999999  5.3460276709999999  3.6114315989999999
  1.1174220630000000  3.0152039720000001  0.2324135860000000
  7.6502451990000004 10.7735883119999993  5.8120476050000001
  6.9993960860000000  5.2674967920000002  5.7965739950000001
  5.4222175060000000  6.9886856069999999  4.8225147240000004
  5.0324177810000004  6.1095663350000002  7.1610839180000001
  5.0103981180000003  8.5511793290000000  6.6894114560000002
  8.1534259769999995  8.5704037399999997  3.1318865790000001
  6.0986328629999997  9.6548119280000009  4.1210654880000002
  7.5543957030000000  8.1904721869999992  5.7526964639999996
  3.1838374059999999  6.9346257969999998  5.8088274840000000
  7.4171461900000004  3.6790084400000000  3.9786245390000001
  1.1066733449999999  7.9703289689999997  4.8503505770000004
  9.3371362510000004  6.8114684990000001  6.9845483650000002
  5.5763443080000004  4.9415835570000004  2.1583280710000001
  9.4578167630000003  9.2623381120000001  6.9923949959999998
  2.5416315840000001  4.2136749910000004  5.7701011119999999
  6.3666994109999999  2.6504622780000000  6.3729599019999998
  4.7950456529999999  3.9712448220000001  4.7792924149999996
  3.4109066850000000 10.3889080669999991  3.2877508770000001
  5.7745874290000003  7.6045444089999998  2.2514560650000002
  6.8140722540000001  6.1487388960000002  1.6088605540000001
  0.5882023910000000 10.6634625280000002  2.4637235980000001
  6.3803700200000000 10.7680275749999996  3.0976535740000002
  4.2323256389999999  7.8418538230000001  1.9697624050000000
  9.7504769630000006  1.3092859630000000  6.2683088209999998
  0.2089124030000000  3.6060667629999998  1.2713008139999999
  2.4372781159999999  5.4555255100000002  1.8052973750000001
  5.4196491519999999  0.7753430850000000  2.0732446320000002
  0.3581024060000000  7.9209715620000001  2.1070661450000001
  2.6548615999999998 10.8642831579999992  4.5352500830000002
  4.9914185440000001  3.7341375260000000  1.4888151860000001
  3.0201946450000001  0.6456216780000000  0.0539382650000000
  7.7543451699999997  5.0716551460000003  4.5150920699999997
  4.6542408030000004  7.2129499419999998  6.1009217309999997
 -1.5292731410000000 10.0687801009999998  0.0087912280000000
  5.7200474920000000  4.3959401370000002  6.6286836940000002
  6.0199091119999997  2.5599968149999999  4.2503594290000004
  2.4506762300000000  7.0587193060000004  4.1888705350000004
  9.0695293790000004  8.1208927079999995  6.1182527779999996
  3.2615460629999999  4.0319763200000001  4.4725507369999997
  9.9569476219999995  5.1094018690000000  6.4569052539999996
  6.3990266750000000  9.7031857499999994  6.4987394539999999
  6.6806294660000001  7.9099042559999999  3.9680812950000002
  9.5830759790000002  2.5112204370000000  3.5458252200000002
