 O Al  P Al  P Al  P Al 
 1.0000000000000000
     8.5710859999999993    0.0000000000000000    0.0000000000000000
    -0.2969864278595616   11.6326465224658246    0.0000000000000000
    -1.0836236211273658   -0.2257176875292574    7.1730977844499133
  48   2   4   2   6   4   2   4
Cartesian
  1.6780821189999999  7.5673023659999998  0.1104673150000000
  3.4993438619999999 10.3582271430000006  3.3685166770000001
  8.1835530989999992  8.9235635379999998  0.6735960490000000
  6.5267714469999998  4.1293399260000001  5.0605582719999997
 -0.1175545670000000  6.5323232139999998  1.4900435009999999
  7.6625658029999997  1.8636342859999999  5.6476382720000000
  2.6767092950000002  7.1377449369999999  6.1994962359999999
  0.5224152340000000  4.5612174710000000  3.0171726909999999
  2.0016407510000001  2.6142890070000000  1.6340314240000000
  2.4649388220000001  4.3966743419999998  4.4533109749999999
  0.8662099510000000  2.0618030190000001  3.7763848649999998
  6.3312473760000003 10.1636903870000008  4.8684847769999999
 -0.7131936440000000  4.0207025979999997  7.0156270029999996
  6.0377938609999999  2.2774525419999998  3.1525905320000001
  1.7263716069999999  9.9512896130000001  1.6748958130000000
  4.0795107069999998  2.5886162200000000  4.7783605060000003
  3.5793044780000001  8.4170431749999999  1.8373193710000000
  5.4466603210000004  0.4988699370000000  4.7542940939999996
  4.0217277820000001 10.6091145260000008  6.4354159319999997
  8.1035249050000004  2.6853709600000002  1.7583056930000001
  5.5763516040000001 10.2664288330000009  1.6250724009999999
  4.7726037520000002  6.2036122279999999  5.1862147240000001
  2.3474326840000002  0.3448441140000000  5.1089794890000002
  4.7037302030000001  4.6168421799999999  3.1667493940000000
  1.8272110829999999  8.4932210880000003  3.6990265789999999
  6.9926043829999998  6.6960404789999997  6.3000159739999999
  7.3036857939999997 11.4227927610000002  0.2000907940000000
  0.7765139510000000  0.5375661780000000  1.7763479339999999
  0.6953910900000000  6.1802074380000001  4.7671638700000001
  1.8977600269999999  2.7641480010000001  6.4141407399999997
  3.1419667200000001  0.2247375210000000  0.3407563690000000
  4.4348797089999996  3.1104071740000001  1.1334481199999999
 -0.1643500310000000 11.1426214409999993  6.0396638899999999
  2.8231603710000002  5.0888663459999997  0.5973625220000000
  6.7728772120000000  6.0685954610000001  3.4333641350000002
  3.8598551200000002  4.4596584799999999  6.5870500420000004
  3.7738439430000001  1.1442990070000001  2.9472158020000001
  5.6898443209999998  2.6086348749999999  6.8332107569999998
  4.8118593450000002  7.8816814969999998  7.1435940220000003
  2.3885057550000002  6.2672297360000000  2.7987003559999999
  4.3090077979999997  8.5051488959999997  4.8074343290000003
  5.5629427710000003  1.0009466380000001  0.9786067899999999
 -0.4477700340000000  8.4758062439999993  4.8841730060000002
  6.5628414429999999  4.5668485050000003  1.5557329200000001
 -0.5444247360000000 10.3347416820000007  3.1321865249999998
  4.9957716689999998  6.5588944859999998  1.6998071920000000
  6.4169934599999996  8.4284896450000009  3.0698935260000000
  1.7491766000000000  9.6325338360000003  6.0489354110000004
  0.0690400780000000 10.4946071550000006  1.4617304499999999
  4.4918945160000003 10.2543166929999998  4.7935123629999996
  0.1360902500000000  7.5314209610000002  0.3701088760000000
  6.9479184770000000  3.1033392530000001  6.1640247429999997
  0.7853993849999999  1.9449915099999999  2.2611722099999998
  1.5821253570000000  5.3916682759999999  3.7058483510000002
 -0.1958548430000000  4.7251072069999998  1.4554728029999999
  4.2902454810000004  4.5085852150000001  4.8795573589999996
  2.5977250679999999  9.3298515979999994  2.7184274679999998
  4.8924088360000004  1.6207909979999999  3.8503584599999998
  5.7712885509999996 11.2696291239999997  0.5280858520000000
  4.1674169829999999  7.4231477899999998  5.8472373439999998
  1.3561834490000000 11.0856326680000006  6.1512092989999996
  3.7584165180000002  4.0404330670000004  0.0554933230000000
  1.2464106530000001  8.0497483370000005  5.3842296259999998
  5.4115295899999998  8.4650863469999997  1.6324994460000000
  3.0611437449999999  6.7662862270000002  1.1511299189999999
  7.4704539800000003  5.7181770959999998  4.9683398209999998
  7.2830852650000004  9.3000040639999995  3.9480469490000001
  5.7351021649999998  5.4860336810000003  2.5199233870000000
  2.2564068790000000  2.1142699070000002  4.8216463709999999
  6.2790546720000000  2.6640832300000001  1.3856770599999999
  3.4417465549999999  1.6068801300000000  1.2863554239999999
  7.1206010219999998  0.1493659040000000  5.7026099559999999
