 O Al  P Al  P Al  P Al 
 1.0000000000000000
     8.9381290000000000    0.0000000000000000    0.0000000000000000
    -0.0025263529195105    5.9430674630332891    0.0000000000000000
    -2.0238567084580317   -0.0083913193215340   12.6111558490835201
  48   2   4   2   6   4   2   4
Cartesian
  0.8094993110000001  5.4550421110000000  2.2609786470000000
  5.7660114189999998  2.6360468460000002  1.7120484750000000
  0.8880476960000000  3.9454121949999998  4.2855983130000004
  5.1900442140000003  1.0570783989999999  4.1651881040000003
  2.4912294130000001  4.1181932080000001  6.2134449130000000
  6.6456177959999998  1.1391419210000000  6.2908118169999998
  2.9315035900000002  5.4731608590000000  4.2290679669999998
  7.4082611649999999  2.8313154260000002  4.1508634119999996
  7.9276099760000003  1.4094895480000000  2.1433243700000002
  3.1317449310000001  4.7067326339999997  1.8526738260000000
  8.0807825040000001  5.5944180020000003  0.1156057860000000
  3.4013152670000002  2.5870613649999998  0.2166056500000000
  1.4478876070000000  2.5357498820000002  1.9706733310000000
  3.9088374570000002  0.9694826960000000 12.4676816810000002
  0.7772477920000000  1.2273102410000001  4.2754147180000004
  5.3353164199999998  4.1503924129999996  3.9495999240000002
  2.1773452579999999  1.1249480839999999  6.3754872889999996
  6.8785922959999999  4.2406510470000001  6.0543143470000000
  3.1166886570000001  2.9759749690000001  4.0643371779999997
  7.4492484289999998  5.4036509910000001  3.8314408400000000
  5.6409181249999998  5.5478108150000001  1.7950100819999999
  3.6337096799999999  1.3139421790000001  2.2703056230000001
  8.0252303709999993  3.7576544950000001  2.0085894299999998
  1.9073436310000000  5.5751887719999997 12.3733676359999993
  1.5712038800000001  5.3374086619999996  8.3843411200000002
  6.0566917949999999  2.8805045790000001  8.2330082269999991
 -1.4560130510000000  5.8601439250000000 10.6607271830000006
  3.0958905660000000  2.3829154290000001 10.4805564090000001
  1.3782517800000000  4.2463268889999997  0.0436088420000000
  5.7792202090000000  2.5891347819999999 12.5574495329999998
  0.7205372330000001  1.1160649240000000 10.3449396179999997
  5.5349103270000004  4.0999378149999997 10.3286836240000000
 -0.9585966060000000  1.1884374099999999  8.5033611029999996
  3.9441824230000000  4.1136125170000000  8.2515474439999998
  0.0163030410000000  2.3796281069999998  6.3136164749999999
  4.5092979140000002  5.8006622150000000  6.2367239699999999
  1.5980935519999999  2.8108925060000001  8.2828249889999999
  6.0679813050000000  5.3937599939999998  8.2773174600000008
 -1.4199314949999999  2.2967411830000000 10.8572255470000005
  3.2485288109999999  5.7960234679999996 10.2385465910000004
  1.9003782780000000  0.6663311440000000  0.4858651160000000
  3.8510184810000001  4.1991052609999997 12.3488807319999996
  0.7354878240000000  4.0764327820000004 10.2698264970000004
  5.2808731990000002  1.2211625589999999 10.1724022250000008
 -0.5868147430000000  4.0929086830000001  8.1381595860000004
  3.6505970290000000  1.2257423220000001  8.3008234769999998
  0.0336376120000000  5.8259480249999998  6.2649006839999997
  4.5178572529999999  2.3988070029999999  6.1358645070000000
  7.9806951990000004  5.5578623790000004  2.0324317629999999
  4.6402942690000000  2.5623415399999998  3.2875017390000001
  2.3341473129999999  4.1441909609999996  4.6436321459999998
  5.1849339120000000  1.1034477400000000  5.7627838169999999
  7.2797942109999996  2.5874324679999998  1.4126666170000000
  1.8144646350000000  5.1250970369999997  1.2010839740000001
  0.1644289390000000  2.6035650690000001  3.3431595750000000
  4.2595491829999999  5.6255049110000002  3.0546538760000002
  0.7197991300000000  1.1446949000000000  5.7859802970000000
  6.8502872369999999  4.1932051589999997  4.4964240190000000
  5.3679294600000000  5.5406117740000003  0.2631662520000000
  2.5698123709999998  1.8580149900000000  1.2574043650000000
 -0.7540360500000000  1.1694197540000000 10.0398423430000001
  5.4282590580000001  4.1314474539999999  8.8107223950000009
  1.5738422459999999  5.5728948310000002 10.6476808900000002
  3.0374786939999998  2.6009970500000001 12.2342792199999995
  3.0505611620000002  5.6025102640000002  7.2993027440000002
  7.4690015020000002  2.6557621710000001  7.2090933179999999
  0.8508920690000000  4.0168336489999996  8.7322532170000002
  3.8253530759999999  1.2026648480000000  9.8411314430000001
  6.8003714249999998  4.2594023959999996 11.6211653899999998
  6.2090350640000000  1.0470915110000001 11.6348012250000004
  3.0759306830000002  2.6501086620000001  7.2377220490000003
  7.5022516210000001  5.6259364690000000  7.2570571399999997
