 O Al  P Al  P Al  P Al 
 1.0000000000000000
     8.4151360000000004    0.0000000000000000    0.0000000000000000
     2.7413270684363966    7.3145799770772149    0.0000000000000000
     2.5761665180956905    1.5098337201731382   11.3779831710330761
  48   2   4   2   6   4   2   4
Cartesian
  4.6725410390000004  2.9563566330000000  1.2596857379999999
  2.6009090970000002  5.0622578149999997  2.0977119520000000
  2.6072968209999998  3.6410326230000001  4.2351778390000003
  6.0589144929999996  2.3416645210000002  4.9806281410000004
  3.2794916160000001  5.9882389329999999  4.5420354749999996
 10.4107103230000000  8.1189888379999999  6.1181758540000004
  4.9009144579999999  4.2754189409999999  3.4529751559999999
  7.3542519569999998  0.6134824060000000  3.7001851499999998
 10.2210419110000004  6.6223804609999997  0.2946849690000000
  5.2681906380000001  0.7300818310000000  2.1814051200000000
  3.0111390370000000  0.9879807210000000  0.8353381530000000
  8.5279878060000005  4.4018003600000002  0.9555769760000000
  6.5120929619999997  5.5276861049999999  1.8658227860000001
  1.4731226680000000  2.5188097869999999  1.9720145630000001
  8.4054119269999994  3.1957232279999999  3.8254971050000002
  5.9850263699999999  7.2517586999999999  3.7236910820000002
  5.0704393280000000  6.9983838799999996  6.0633474999999999
  9.2564791470000003  4.8725761089999997  5.7191555850000002
  3.6642472009999998  1.7082863580000001  5.4751526989999997
  8.7521222660000006  5.6330730310000003  3.3638265010000001
  4.1290884470000000  5.6582931710000004  0.2836423200000000
  6.9031895429999999  2.5672150220000001  2.1671338360000001
  3.5172999859999998  7.3538754810000002  2.0046057010000000
  8.8386591840000008  3.0298212069999999 11.3283219049999992
  9.7516169329999993  2.2650348970000000  6.7411340549999998
  5.4537804339999996  2.8488215129999999  9.5747826660000008
  4.9489069050000003  5.4790577699999998  8.4550290179999994
  7.7884051820000000  2.2159035050000000  9.0067115369999993
 10.1508457419999996  7.9631650809999996 11.2086512410000001
  5.1511004030000000  4.8687563579999997 11.2793502619999995
 11.2442361060000007  5.9172925940000001  7.3707520510000002
  6.3852407600000003  3.6464902000000001  7.4184844190000003
 11.9799120180000003  7.3848972799999997  9.2414873960000001
  7.3176390140000001  4.6147752700000000  9.6263095690000000
  4.5079021580000003  4.3102450650000002  5.8608854189999997
  8.2749075110000003  7.1788211369999999  5.1801260050000000
 11.1183992489999994  5.1139151099999998  9.7096599910000005
  7.2582330360000000  6.2591923449999998  7.2807158710000000
  9.4126260320000004  4.1505292660000004  8.1337564689999997
  6.7437229179999996  7.8281856970000003  9.1767842599999998
  8.8937960000000000  5.7612824429999998 11.1544523939999998
  3.4469159770000002  3.0053670850000000 11.1477402500000000
 10.3251250219999999  2.1765744180000000  9.3283250009999996
  9.0507584780000006  6.8243126099999998  8.8208407799999993
  3.4404226050000002  3.0397452239999998  7.8581195270000004
  5.4549544589999996  1.2515401509999999  7.3379654050000003
  1.3840816480000000  1.3191471950000000  4.4885253809999996
  6.8950856690000002  5.0616354860000001  4.9870693279999996
  6.5692222100000004  3.6593028250000001  3.6898830750000000
  8.6437899300000005  1.4943608030000000  2.8777094700000001
  3.8076022859999998  4.5729438269999996  4.4369580590000002
  6.6827145809999999  0.9253758130000000  4.9843075409999997
  2.9701798340000001  6.2062750150000001  1.1426017989999999
  5.7588394410000001  1.8974853570000001  1.3256716490000000
  6.4379631860000002  7.2815545310000003  2.0360532280000001
  9.4999775809999996  4.2732447459999996  2.4368606970000002
  2.7474779709999999  0.6903625910000000  4.9113603780000004
  8.3243509919999994  5.6419113300000001  4.8079628420000002
  2.0255036639999999  2.1040420680000000  0.5395055090000000
  7.2922496350000001  5.1681950820000004  0.5761703010000000
 11.9510569249999996  5.9760309129999998  8.7550077949999991
  6.7484719970000002  3.2893830890000002  8.9337730579999999
  3.7729668909999998  2.2236200980000000  9.6004367150000007
  8.8881415459999999  1.4133414430000000 10.3709014869999994
  5.8322475720000000  5.3561434229999998  6.8818130240000004
  9.5909770489999993  3.1420344270000000  5.1961112629999997
 10.2762845209999991  2.9378159319999999  7.9968758190000004
  7.8028861430000003  7.3614130219999998  8.1692468670000000
  6.8572870589999999  5.4562709659999999 11.2345695219999993
  9.3077357430000003  5.2231752829999998  9.4933699300000001
  4.7929759389999997  2.6482327990000001  6.5509141739999999
 11.6563960190000007  6.9151726360000003  6.0502662200000001
