 O Al  P Al  P Al  P Al 
 1.0000000000000000
     8.4589459999999992    0.0000000000000000    0.0000000000000000
     2.3423774727788618    7.0721900480026072    0.0000000000000000
    -1.6412570428305682    3.9395480224932933   11.8047382189536183
  48   2   4   2   6   4   2   4
Cartesian
  4.4624833949999996  0.7021311590000000  1.7912900220000001
  2.9804027390000001  3.1470957149999998  2.0871259169999998
  5.9913733789999997  7.7706167940000004  3.9779846139999999
  0.3737390040000000  4.7449893669999996  5.6579232150000003
  6.8073032130000000  6.5369437890000004  5.9793240619999999
  0.6175408820000000  4.0080408120000000  3.2112294150000000
  4.9457155410000002  2.7809362110000002  4.2741871070000004
  0.7920966120000000  2.3449685429999998  4.8058026849999997
  4.8535317210000004  5.9802374650000001  1.9150421259999999
  7.3040299270000002  5.0654194370000001  1.7712613749999999
  2.3877346760000000  6.0050104849999997  2.4767791090000002
  4.8738938870000004  7.9206865180000001 11.4692985509999996
  5.5991548480000004  3.2100479750000002  1.8652396120000001
  1.3800024719999999  1.0271820250000001  2.3373783090000000
  4.4507652740000001  4.3340795869999997  6.1344598950000000
  7.1644554100000004  1.4796419210000000  3.3135841039999998
  6.6892492939999997  3.5621392900000002  5.8981541670000004
  2.0466288540000002  6.7710844630000002  4.7943508809999997
  5.8201426710000002  5.0723124000000004  4.1321575209999999
  2.5740414690000000  4.2162076140000000  4.7290385930000003
  2.1401954710000002  7.9869230919999996 11.6197413469999997
  7.9980847480000001  2.7158979350000001  1.2472280650000001
  0.4677017810000000  6.1590132569999998 11.7615058950000009
  8.8483182150000008  6.9152321030000001  0.7995139660000000
  6.2055018019999997  5.2180101069999996  7.9736181259999999
  2.6776793820000000  5.5628586330000003  7.2370117079999998
  4.5348632000000002  6.4581577919999997  9.2989001009999992
  0.6590569580000000  4.2254848020000004  9.7691159659999993
  4.9722625620000001 10.5852465050000006 11.4072273929999994
  3.1822476549999998  6.7780804080000001  0.2496561850000000
  7.4120638730000001  6.9980184369999998  9.7409041940000005
  1.8949995930000001  6.5897345539999996  9.4646540439999995
  5.8177769130000003  8.6673394389999991  8.7354087739999997
  0.3044537260000000  6.0569593399999997  7.8447136830000002
  4.3937792330000001  7.0067610470000004  5.7110949040000003
  8.6519435970000007  8.0958266079999994  5.5876982140000004
  8.1807629599999991  8.8775207389999995  8.1371110509999998
  2.1033790969999999  7.9106512120000003  7.3855798740000003
  7.2236669259999999  9.3144624860000000 10.4566305479999997
 -0.5530794140000000  3.2435894159999998  7.9399627720000003
  3.6020847780000000  5.7294092919999997 11.5231482829999994
  1.5252184570000000  4.6072940400000002  0.6517670280000000
  6.0609749260000001  4.6466507970000004 10.3097202120000002
  3.4624916520000002  8.9635542299999997  9.6268849329999995
  4.1443358469999998  4.0410274639999999  8.7877038489999997
  1.8143734400000000  3.2458402380000000  7.6684347879999999
  5.9484872559999999  8.8813644790000001  6.2183579240000002
  8.3190437920000004  6.4747364440000004  3.5483407890000001
  4.3350886680000000  2.2366954469999998  2.7685053040000001
  9.1597982410000007  5.4850431239999997  2.1593483910000000
  5.7853320540000004  7.5529273000000003  5.5341028059999999
  1.1148558310000001  3.8352371519999999  4.7236989910000000
  2.6302707999999999  3.4884121750000001  0.6374634560000000
  5.1283052830000004  0.4984560430000000  0.4146050390000000
  6.3218786800000002  6.2768390739999997  2.9225687300000001
  0.2498849040000000  2.2002864899999999  2.9092860319999998
  5.4663246540000001  3.9348228789999999  5.0290627570000002
  9.2516454350000004  7.4617230069999998  4.3565568920000004
  3.5334672010000001  6.6983066740000003  1.7472400360000000
  6.8326687279999998  3.6790727120000000  1.1796636110000001
  7.2617643410000001  8.3863549919999993  9.1990457419999991
  1.7632249019999999  6.5409684270000001  7.8913764219999996
  0.2552087660000000  5.8708331390000001 10.0499430239999992
  5.1841034319999997  9.2660541060000003 10.3442764510000007
  9.3958907840000006  9.1124116809999993  6.8446301270000003
  3.2301646410000000  5.7190903579999999  5.5518545890000004
  5.2178210319999998  5.1141592869999997  9.0916916630000006
  0.7501304990000000  3.1286564590000001  8.7273754710000002
  8.4385353510000005 10.3023405389999994 11.3831655440000006
  3.3424353990000002  7.1722909950000000 10.4868525679999998
  7.5214735389999996  5.1401522079999999  6.8179913059999997
  3.5328496210000000  3.1546634849999999  7.3361193890000003
