 O Al  P Al  P Al  P Al 
 1.0000000000000000
    10.3097290000000008    0.0000000000000000    0.0000000000000000
    -0.9906568146719387   12.9257936968274816    0.0000000000000000
     0.1517030991486616   -0.5480321296105238    5.1028723194282701
  48   2   4   2   6   4   2   4
Cartesian
  1.3251429600000000  0.7901098350000000  4.9542497960000000
  6.2649032739999999  3.1377512219999999  1.6582513759999999
  8.9222375970000005  5.3834463899999996  0.8502362840000000
  7.7980093820000000 11.8051231479999998  1.1931583649999999
  1.1159820009999999  5.6475529099999999  1.0532493119999999
 -0.0082513230000000 12.0692433179999998  1.3961363890000000
 -0.2410084860000000  7.6800428360000002  0.6940514230000000
  5.1289613569999997  5.3323567100000000  3.9900169750000001
  7.6264921169999997  3.0866744700000002  4.7980672430000002
  7.7600728170000002  9.5907791170000003  4.4551725180000004
  1.3115991600000001  9.8236463440000001  2.2891001150000001
  6.4664648160000002  9.8236238430000000  2.2891106950000002
  1.1100310140000000  3.1377837830000002  1.6582524640000000
  6.4800125609999997  0.7900802900000000  4.9542350680000000
  2.6431721719999999 11.8051346489999993  1.1931517119999999
  3.7673879139999999  5.3834242410000002  0.8502108500000000
  4.0001478890000000  9.7726378260000004  1.5523247090000001
  6.2708426599999996  5.6475354170000003  1.0532126470000001
 -0.0259193860000000  5.3323764220000003  3.9900606519999999
  4.9138575700000002  7.6800154999999997  0.6940348940000000
  2.6051706580000000  9.5907788160000003  4.4551771269999998
  2.4716109830000002  3.0867026059999998  4.7980702820000003
  0.1017059980000000  9.3266916539999993  4.2521345710000000
  6.4030542300000004 11.6232689199999992  4.0959585130000002
  8.7312135289999997  3.1887557179999999  2.3949954610000002
  3.6397464959999999  1.3891307330000000  0.5881122390000000
  2.6626517239999998  5.2813759039999999  3.2532819630000001
  7.7541118320000004  7.0810095439999996  5.0601601220000001
  5.2565910290000000  9.3266723819999999  4.2521364689999999
  5.1230458299999997  2.8225680080000002  4.5950428250000002
  3.8091165370000000  7.5779715530000002  3.0971125890000000
  4.9333281060000003  1.1562525330000000  2.7541847439999998
  1.3056466220000000  7.3138706590000000  2.8941089579999999
  2.4298658930000001  0.8921678810000000  2.5511639840000000
  5.1466212510000000 12.0692305169999994  1.3961660940000000
  9.1550155639999993  9.7726505110000002  1.5523342959999999
  8.7946244589999996  1.3891040020000001  0.5881481730000000
  3.5763477020000001  3.1887595890000000  2.3950016110000001
  2.5992592559999999  7.0809970370000004  5.0601736050000001
  7.8175045440000002  5.2813628899999996  3.2532887129999999
 -0.0318509510000000  2.8225935639999999  4.5950543399999999
  1.2481988610000001 11.6232852310000006  4.0959668709999999
 10.0882146890000008  1.1562671680000001  2.7542101730000002
  8.9639833020000008  7.5779641430000000  3.0971023770000001
  7.5847397519999999  0.8921628320000000  2.5511779560000001
  6.4605218799999999  7.3138475129999998  2.8940892850000002
  3.9367416600000000 11.5722624419999995  3.3592160660000001
  9.0916213219999999 11.5722902130000005  3.3591998070000000
  7.5086638829999997  4.4951488790000003  1.6064385760000000
  3.8852030890000000  3.9749623430000001  4.0418423690000003
 -0.1143394740000000  6.1453605390000003  0.3882702280000000
  9.0283236369999997 11.3073348639999995  1.8581076150000000
  6.2016107199999997  2.8728115260000000  0.1570886710000000
  6.5297218690000003 10.0885808440000009  3.7901353260000001
  9.0400609640000003  3.9749777800000001  4.0418410780000000
  2.3537962440000002  4.4951693380000002  1.6064389379999999
  3.8734467730000000 11.3073335369999999  1.8580749550000000
  5.0405615079999997  6.1453422260000004  0.3882887980000000
  1.3748728059999999 10.0885976369999995  3.7901964929999998
  1.0467463459999999  2.8728266379999998  0.1571371960000000
  2.5359625600000002  6.8160505069999999  3.5590589779999999
  3.7030380470000002  1.6540656030000001  2.0892463120000002
  5.2227089229999999  8.4662344639999993  2.3408825499999999
  8.9978651930000009  8.4384027560000003  5.0083647310000003
  2.3959919119999999  0.0317347010000000  0.6399393320000000
  7.5508604149999998  0.0317203330000000  0.6399298360000000
  8.8578880679999994  1.6540697419999999  2.0891972280000002
  7.6908214480000003  6.8160536900000004  3.5590396250000000
  3.8430058649999999  8.4383971619999993  5.0083521680000000
  0.0678378140000000  8.4662533690000004  2.3409018840000000
  6.1711597480000000  0.0038709760000000  3.3073859520000002
  1.0162919790000000  0.0038928560000000  3.3074117119999999
