 O Al  P Al  P Al  P Al 
 1.0000000000000000
     9.1483150000000002    0.0000000000000000    0.0000000000000000
    -3.0053091200389330    6.9691478674000615    0.0000000000000000
    -2.6666713252173597    0.8787138258731716   11.0847878003136717
  48   2   4   2   6   4   2   4
Cartesian
  3.7374513500000002  4.7449913129999999  1.9566641000000000
 -0.8482359500000000  4.4578962420000003  1.8627907130000001
  2.1907254429999998  3.9492607920000000  3.4191310449999999
  4.5125982670000004  3.3932546010000002  4.7159673079999997
  2.1386116330000000  2.5053466830000000  5.4927664460000001
 -2.5035830610000001  4.2460193339999996  3.5701538269999999
  0.7571289900000000  5.9888338919999997  3.4782996769999999
 -2.3811275649999999  3.1185949810000002  5.7634149319999999
  2.6320421650000001  2.2232578099999998  0.9262330790000000
  5.0879006609999999  2.6104403889999999  2.0944856540000001
 -1.2238989309999999  7.0060703240000004  1.8960765610000001
  2.4452811030000001  2.0998745030000001 11.0441726080000002
  5.7379456429999998  0.2375774310000000  2.1816810360000001
  0.5534504580000000  2.1707425630000001  2.2669529140000000
 -1.3209369500000001  6.5952109060000002  4.6120652639999999
  7.3661953779999996  1.7499012039999999  3.7712816070000001
  3.8398939909999998  0.4833477730000000  5.5250995200000004
 -0.5597841830000000  0.7319555050000000  5.5021681119999997
  3.1107642400000000  1.4345636760000000  3.4234150090000002
  5.6223189749999998  5.2831427150000003  5.7115666100000002
  1.3359411310000000  5.0921022789999997  0.9218013250000000
  7.2071775599999999  1.9981729779999999  1.1359448139999999
 -2.7831262639999998  4.2691788349999999 10.8346409769999994
  6.0246289409999996  5.2008892339999999  0.9882755330000000
  5.2688760940000003  1.7043925360000001  6.9810538869999998
 -0.2375748240000000  3.0575329830000002  7.2598448629999996
  1.2085863939999999  6.9768556449999997  8.4654249589999999
  1.4860652009999999  0.9933253540000000  7.2582240469999997
  1.7228747849999999  4.7317217579999999 10.8448578320000006
  0.5986657030000000  1.0084756749999999  0.0133754240000000
  4.4191669070000001  2.5715937009999998  9.3847571510000005
 -0.2899407780000000  4.4145579819999998  9.3420132190000000
  2.1425802329999999  3.3116420670000002  8.7643482519999996
 -2.4135529930000001  3.5895091240000001  8.3699808660000006
  0.0615168060000000  3.4968071670000000  4.5459819870000002
  3.5967208970000000  6.4054372239999999  4.5515996230000004
  3.9063564600000000  3.7969284540000001  7.1650662699999996
 -1.1465647109999999  5.3231626929999996  7.0876321879999997
  3.9740583049999998  5.0028462129999998  9.3810003569999996
 -3.2483292939999999  6.6775617309999999  8.1961429199999998
  4.0648190389999996  6.3259110439999997  0.0433068430000000
 -3.4749053299999999  6.6176826630000001 10.8218463079999996
  6.4401810089999998  0.9637806650000000  9.0492619980000004
  0.1823067570000000  1.8059470810000000  9.4485982649999993
  3.3996524010000000  6.4420822030000000  7.2445388949999998
 -1.0865851099999999  7.0373354749999999  9.5278356889999998
  1.8969348989999999  4.9075827660000000  5.7116272429999997
  5.6036348589999996  6.6558857460000000  3.1270128840000000
  2.1227427010000000  5.5890544069999999  2.4406837220000002
 -2.2163766190000000  5.6629934920000000  2.4450541499999998
  1.5546616890000000  3.7318378409999999  4.8350692239999997
  5.9397197070000001  3.9874985679999999  4.8985556550000000
 -0.0521553670000000  4.6810081759999997  0.4998288660000000
  4.5701283039999998  5.0317076770000000  0.6492839580000000
  3.4319559150000001  2.9216033659999998  2.5275255410000002
 -1.0818366250000000  2.8006051259999998  2.4978821050000000
  0.0964079620000000  7.1180336080000002  4.2338746509999998
  4.7584025870000000  7.2983392870000001  4.1659154569999997
  1.3610599990000001  1.3470512550000000  1.2725080019999999
  5.7755949019999999  1.4916475819999999  1.3410904109999999
  3.5738287839999998  3.7284686059999999  8.6991913610000005
 -1.0170750730000000  4.1440674380000004  8.0401533629999999
 -2.9196065519999999  2.7869586320000002  9.8481450069999994
  0.9108182900000000  3.3249827910000000 10.1508484840000008
  3.6352378189999999  5.2799012970000003  5.9931023070000000
 -2.1421885079999998  6.5420633140000000  6.2609516039999997
  2.4877062340000000  7.4843859909999999  7.8499749000000003
  0.8784678940000000  0.7162609750000000  8.6410546099999994
 -4.5242642020000003  6.6225236560000003  9.4400756959999992
  3.4243057790000000  0.8946309690000001  9.8634503819999999
  3.8418446110000000  2.1910055079999999  6.0234135200000001
 -0.7800007970000000  2.4964137640000001  5.7341581189999999
