 O Al  P Al  P Al  P Al 
 1.0000000000000000
     6.3885560000000003    0.0000000000000000    0.0000000000000000
    -1.5561794163127485   10.7466797842186370    0.0000000000000000
    -1.5466517142007725   -5.4961724213434149   10.2842305102170801
  48   2   4   2   6   4   2   4
Cartesian
  4.5087716310000001  1.7998165950000000  1.7331825210000000
  1.1655512910000001 -4.7977857049999999 10.0632785689999995
  4.6157756069999998 -1.8008793050000000  4.2089945919999998
  2.2016445569999998  4.8815469760000001  9.2463940400000002
 -0.8805891160000000 -0.7724422030000000  8.4551618509999997
  1.2637277210000000  7.8449161360000002  2.2556176630000002
  4.1233153280000003 -2.0724673710000001  6.5958770490000003
 -1.6590395659999999  4.5999825220000004  8.4547117249999992
 -0.1386471850000000  3.3408739500000002  3.1677312049999999
  2.0243704390000001 -0.7323123410000000  5.0274870060000003
  0.1004492510000000  6.2223677300000002  7.6763993819999996
  1.6216286520000001  4.9627324430000002  2.3897764100000001
 -0.9154663330000000  8.7145946320000007  3.1684413779999998
  3.7318021550000000  7.1738868570000003  1.7334723780000001
  2.0409193619999999  2.4715146099999998  2.2551135169999998
  3.8372107849999999  3.5723830290000000  4.2087069169999998
  1.6044406000000000  1.7587122940000000  5.1613318430000001
  0.8264664470000000  7.1321674640000001  5.1609021650000004
 -0.4775919920000000  6.3038777650000002  0.8207717350000000
  3.3451690699999999  3.3006624290000000  6.5955016490000000
  1.2459305960000000  4.6408370440000004  5.0272384570000002
  0.3885880620000000  0.5760437720000000 10.0640263910000005
  0.3526631600000000  3.6138672459999999  0.7809555620000000
  3.3978643609999999 -2.9839819890000001  9.1113951459999996
 -0.0853058250000000 -2.9422304530000001  5.6840582509999997
  1.7102643190000000 -1.8412277130000001  7.6371101410000000
  2.9792172209999999 -0.4926217280000000  9.2460608610000001
 -0.4240090990000000  8.9875414459999998  0.7814903900000000
  0.8799440930000000  0.8492481750000000  7.6771969889999996
  2.6213832109999999  2.3899571079999999  9.1117501549999993
  3.2926527459999999  0.6176014510000000  6.6362618449999999
  3.0063949440000002  6.2624143940000003  4.2491725130000004
  2.4005550400000000 -0.4100215820000000  2.3901002710000001
  4.1503628949999998  4.6824339380000000  1.5989545800000000
 -0.9691841250000000  6.0313371210000000  3.2077171039999999
  0.3000414750000000  0.9307116510000000  0.8209449430000000
  3.7845502130000002  0.8894288680000000  4.2494692299999999
  1.2185703870000000 -2.1141844050000000 10.0239697959999994
  0.4420712600000000  3.2592817549999999 10.0246545030000007
 -1.2992322150000000  1.7189722329999999  8.5899748299999992
 -0.5047323900000000 -0.4509307410000000  5.8178540310000004
 -1.2831742479999999  4.9223768210000003  5.8174654600000002
  4.9288321670000004 -0.6914755290000000  1.5989121780000000
  2.5139094769999999  5.9908476249999998  6.6360615279999999
  0.9332183140000000  3.5326262380000002  7.6378059199999999
 -0.8632259210000000  2.4313805870000000  5.6838334499999998
 -0.5226369540000000 -3.6550109649999998  8.5894952989999993
 -0.1916676120000000  0.6577625390000000  3.2077175709999999
 -1.2574073930000000  3.2512251200000000  9.4923461759999999
 -1.6823701659999999  6.2725105110000001  4.7809844559999997
  4.4781472180000002  3.5529847200000000  5.6106671600000002
  4.7781091919999996  6.0516436240000004  1.8058494039999999
 -0.2529053750000000  0.5967714960000000  8.6622462579999997
  0.9942121650000000  3.5934191219999998  2.1827229159999999
 -0.9042248640000000  0.8991534960000001  4.7812110890000001
 -0.4810818350000000 -2.1226191139999999  9.4917080980000001
  5.5557134320000001  0.6780812290000000  1.8058147620000000
  5.2564411719999997 -1.8203010509999999  5.6111040960000000
  0.2173585200000000  8.9670986199999998  2.1833575359999999
 -1.0322980340000001  5.9696473310000000  8.6615151010000009
  1.8732736059999999  6.0102346659999997  5.2339431950000002
  1.5748022110000000  3.5119327039999999  9.0395775700000005
  1.9997462660000001  0.9392164730000000  1.3527295989999999
  1.6453032130000000  3.2908746089999998  6.0640876019999999
  2.5795204310000002  0.8575285520000000  8.2096014349999997
  1.7998775359999999  6.2304102710000002  8.2090547829999991
  2.3514767889999999 -1.8618053029999999  9.0389855440000009
  2.6515777680000001  0.6370827970000000  5.2343370609999997
  2.4235537350000000 -2.0825332859999999  6.0638991090000003
  1.2219887100000000  6.3127261690000003  1.3531161920000001
  4.5502915550000003  3.3322972709999998  2.6353788379999998
  3.7736051850000001  8.7060099730000005  2.6360111140000000
