 O Al  P Al  P Al  P Al 
 1.0000000000000000
    11.1324740000000002    0.0000000000000000    0.0000000000000000
    -1.9258181056427230    6.8815600631097942    0.0000000000000000
     1.0364155310696266    1.2011672813890737    8.8099125158379987
  48   2   4   2   6   4   2   4
Cartesian
  2.5936318960000002  4.8160101910000002  7.5233183390000002
  2.3037223070000001  5.7030035459999997  0.9194686420000000
  9.8023863440000003  6.8212797930000004  8.1853201559999995
  6.4627202029999999  7.5332535199999997  6.4090495430000001
  3.4372415140000001  7.3194135549999997  7.1831739280000004
  7.2406196730000003  6.3996995950000004  8.5594135770000008
  0.4711645720000000  3.8872046939999998  5.5578772929999998
  7.6445886209999996  5.2326906570000000  6.1862045849999996
 -0.7795550580000000  6.8700456240000003  0.9474097750000000
 10.2382240499999995  6.1081758930000003  5.6395530259999997
  6.9522073490000000  7.2507466679999997  3.9448153810000002
  9.1874727669999992  4.1028424010000002  1.3942386520000001
  8.3414583090000001  4.8697576500000004  3.7058213630000001
  8.1686817769999998  4.2348773749999999  8.4404955650000009
 10.8303878069999993  1.3482089090000000  5.6477517070000003
  2.2620157430000001  3.1153899340000000  1.2295991399999999
  5.0709695659999996  5.0259782040000003  7.0697541560000001
  0.9410600230000000  7.0595888709999999  7.5225274000000004
  5.8768329829999999  4.7247713789999999  4.2464098280000000
 -0.2347547400000000  2.1402905890000001  1.2747112920000001
  6.7534740990000000  3.8617224530000001  2.0304924999999998
  7.9717125549999999  6.3599488280000003  1.7541613979999999
  5.6174423060000001  6.1857903460000001  2.1641673969999999
  0.2118844220000000  4.4862915870000002  0.7175241230000000
  4.7264389150000001  1.6617634569999999  5.1886729630000001
  4.8770679469999996  1.7718744860000000  0.8051593300000000
  5.3763245169999996  0.4043211000000000  2.8061549710000002
 10.0660290149999998  2.8558352130000002  3.8224345729999998
  3.4612530499999998  3.8627198350000000  5.5303409510000003
  1.9855814260000000  6.1654183800000002  5.3720952239999997
 -0.0102881250000000  5.0194797710000003  3.3106986830000000
 11.0078050209999994  4.3853574300000000  7.9179579720000000
  9.1472576429999997  3.2567856389999998  6.2492161330000000
  4.1807655080000004  2.7781564169999999  7.7292917909999996
  8.4028065749999996  1.6221448869999999  1.7758980940000000
  6.7416582969999999  3.0060676900000001  6.8155001659999996
  1.4003815420000001  2.9063511620000000  3.5065249970000001
 -1.3366177130000001  7.3086524449999999  3.4421220369999999
  2.1752674110000001  1.3309639620000000  5.1631790600000000
  4.4125225779999999  6.5676356030000003  5.0460617409999999
  9.8544931780000002  1.8108724640000000  8.1097020059999991
  7.3556266690000003  2.6519657090000002  4.2317107209999998
  4.2841065519999999  4.3927339490000001  0.9291972180000000
  3.0747054039999999  4.7618689249999999  3.0667212830000001
  4.3913204019999998  2.6882492349999998  3.0185124000000001
  2.9686560190000000  0.8556392340000000  2.3545841009999999
  1.3933942960000001  2.2312715550000002  7.5959595240000004
  7.4156458740000000  1.2905459950000000  8.5925676400000004
 10.8989899309999991  2.7325296570000002  6.9743840769999998
  8.9377483400000006  1.9162235649999999  4.8615221940000000
  7.1188886330000001  3.9934870050000000  3.5667714190000002
  2.9287839670000002  4.4356948760000003  1.5726251840000001
  4.3942509520000002  1.3611732889999999  2.2688298240000000
  3.0811835070000000  7.1680055139999999  5.6431185060000004
  3.2698375600000000  2.5340592979999998  4.4428104580000003
  2.3853540920000000  6.3596203649999996  8.3993662330000003
  3.8543731480000001  4.0735881500000000  6.9843703479999997
  7.9266230469999996  3.9527167980000000  6.9187926759999998
 -1.0490330680000000  7.4639630690000001  4.9800517480000002
  0.1666803650000000  3.6893365820000001  4.0081215439999998
 -0.2087723780000000  7.8257409830000002  8.3054354410000002
 -0.7802131960000001  3.3819886870000002  0.6375374220000000
  4.3980139850000004  5.8961537599999998  3.3555652750000000
  5.6446818270000003  3.4163074930000001  0.6938505700000001
  6.0289851240000001  5.8526589140000000  5.7494052000000000
  7.7509791740000002  4.8917540239999999  0.6173885640000000
  6.7440227989999997  7.1967567470000002  2.3740900940000000
  6.7707056320000003  7.7432997349999999  7.9576562959999997
  1.3645944880000000  1.6664260689999999  1.9964510150000001
  9.5543081149999995  5.6697317990000000  2.6107740460000000
  5.8727926879999997  2.0281318090000000  7.9957966889999996
  0.6163567840000000  5.5172072029999999  6.3855942819999996
