 O Al  P Al  P Al  P Al 
 1.0000000000000000
     8.8902839999999994    0.0000000000000000    0.0000000000000000
     0.0002615219362680    5.4646619937421814    0.0000000000000000
    -3.2002575903674275    2.7320426282451833   12.5515307488119490
  48   2   4   2   6   4   2   4
Cartesian
  2.8620605690000001  4.8262904310000003  0.0030591420000000
 -0.0862121610000000  2.1249269649999998  2.0053295590000002
  3.7067814729999999  3.3872541420000002  4.1346747790000000
 -0.1686101210000000  2.0269864279999998  6.0092400120000002
  6.3155031819999996  3.3780707010000000  6.2134905150000002
  1.8705143959999999  3.3780409960000002  6.2134137310000002
  5.7771627120000000  4.7594944019999996  4.2924186830000002
 -0.7382793470000000  3.3870294759999999  4.1348046240000000
  2.0498108380000000  3.3738516199999999  2.1885184849999999
  4.3866483960000000  4.6317282249999998  1.9685079100000000
  4.1544592710000003  4.6603999790000001 12.4859357499999994
  4.3586295699999997  2.1251444839999998  2.0054212869999999
  6.4950158160000004  3.3735049030000002  2.1886984749999998
  6.7185186010000004  0.6613199789999999  2.0575726400000001
  3.7384608789999998  6.1106295729999998  4.0878237579999999
 -0.7067226620000000  6.1104758190000004  4.0881026489999996
  6.3470024580000004  6.1191940919999999  6.1668173870000000
  1.3321184290000001  4.7594637850000003  4.2923617700000003
  5.7764549059999997  2.0055289620000001  4.2904117429999999
  1.3313964770000000  2.0054654620000001  4.2902493919999998
 -0.0589781880000000  4.6315520389999998  1.9688374980000001
  1.9595364860000000  5.9991665630000002 12.5119190089999996
 -2.4856977769999999  5.9995286040000000 12.5118353829999993
  2.2735258400000000  0.6614012320000000  2.0572842539999998
  5.6644596009999999  1.8991398300000000  8.3316309670000006
  1.2486083740000000  4.8569188619999997  8.2963829679999996
  2.7418068640000000  7.5583792709999997 10.2966708720000000
 -1.7497451970000000  4.6594865060000004 10.3688092659999995
 -0.2904407260000000  4.6603894520000004 12.4857634470000001
  5.2224863959999999  0.6624751900000000  0.0261002970000000
  4.8274649119999999  3.3939512800000000 10.2777553650000009
  0.4460204440000000  5.9991074150000001 10.3409693419999993
  3.3338093070000001  3.3935798610000001  8.2447053599999993
 -0.8881166900000000  6.1051912110000002  8.1131900449999996
  4.2764361400000004  2.0270101480000000  6.0090677719999999
  1.9019317240000000  6.1192085030000003  6.1667467599999997
  5.6937285759999998  4.8570884310000002  8.2966735739999997
  1.2193007259999999  1.8989313329999999  8.3317067490000003
  2.6956421160000001  4.6600826460000002 10.3685121640000002
 -1.7027067910000000  7.5573455239999996 10.2964122650000007
  0.7773450450000000  0.6627819160000000  0.0259958120000000
  7.3072031529999997  4.8262760870000001  0.0032300070000000
  4.8908287840000000  5.9995024470000002 10.3410181489999999
  0.3822391390000000  3.3941669150000000 10.2772342800000001
  3.5569118820000001  6.1053944350000000  8.1134173809999997
 -1.1116803460000000  3.3934840199999998  8.2446978489999996
  4.2773936629999998  4.7377862459999998  6.0113782929999999
 -0.1677087740000000  4.7376472529999996  6.0114130950000000
  2.9554651310000000  2.0190548960000001  3.1527290369999998
  7.4189488069999996  4.7459037159999999  3.1218054639999999
  5.0100490349999998  3.3827932180000002  5.1780755230000004
  0.5650371440000000  3.3827997910000001  5.1780960839999999
  0.6030886990000000  3.3652718810000000  1.5379967720000001
  2.2042199380000000  0.6360972430000000  0.4823573000000000
  7.4010367349999999  2.0188497700000001  3.1526899209999999
  2.9742297679999998  4.7461059790000002  3.1213090999999999
  5.0436074230000001  6.1152850580000004  5.1235377709999996
  0.5986018030000000  6.1150334610000003  5.1235496759999997
  6.6494350500000001  0.6361040540000000  0.4826164190000000
  5.0483810509999998  3.3651634119999998  1.5379409020000001
  3.4009677219999999  3.3680932239999999  9.8196246350000003
  0.5587356300000000  6.0969801979999998  8.7634093409999991
  5.6473587639999998  4.4843359850000004 11.4273884389999996
  1.2026788630000000  4.4836380629999999 11.4272373770000009
 -1.7930646830000001  4.7509225060000002  7.1490358089999999
  2.6522685629999998  4.7509760380000001  7.1489099080000003
  5.0037853639999996  6.0972941100000000  8.7634620160000001
 -1.0442637660000000  3.3676820840000001  9.8197225950000000
 -1.0201651610000000  6.3351265469999998 11.4258350679999996
  3.4244276299999998  6.3359532219999997 11.4255151280000007
 -1.8115697719999999  2.0133496680000000  7.1803810429999997
  2.6334394020000000  2.0133928200000000  7.1805167259999996
