 O Al  P Al  P Al  P Al 
 1.0000000000000000
     8.6399640000000009    0.0000000000000000    0.0000000000000000
     4.2728108122712563    7.7235775414605543    0.0000000000000000
    -0.3944650051409541    1.3881979829063678   10.5586512506273191
  48   2   4   2   6   4   2   4
Cartesian
  6.6844248650000004  6.9873540560000000  1.3148057080000000
  1.9642741650000000  1.5153453779999999  2.0944050630000000
  5.2778632290000003  6.9442883550000003  5.5825784330000001
  8.6743484970000004  2.6345376360000001  3.3401341499999999
  3.2385459470000000  6.2360087599999998  4.5184137370000004
  9.0546462810000001  2.0731462150000000  5.7240851780000002
  2.7715893750000000  1.0367807270000000  4.5537333159999998
  9.6908959629999991  5.3010015959999999  3.7104556000000000
  9.7571947479999999  3.6264121149999999  1.0055660900000001
  7.6299128940000003  4.8909541279999997  2.1348627190000000
  0.8754100280000000  1.3279563780000001  0.0866420170000000
  5.6573550590000004  4.7761948350000001  0.7009280260000000
  6.0394092669999999  2.7530580510000000  2.1040179950000000
  4.1248129320000002  6.6435465950000001  0.6317720510000000
  3.8322078300000002  2.7394693769999998  3.2073837900000002
  9.5309868519999998  7.1349350889999998  5.4248291579999997
  4.7279770489999997  2.1555947739999999  5.5039559560000004
  7.4762030819999996  6.3970680409999998  4.4074298750000001
  5.2976938960000002  5.0224088660000001  3.7831327780000001
  7.2702205250000000  0.9604818130000000  4.4892729879999997
  2.5372602529999999  6.3972957319999999 10.0447626200000002
  6.8788860029999999  3.9534705790000002 10.4779548069999997
  7.4319879679999996  6.7956114139999997 10.2445114559999997
  5.2628538540000003  1.1801622240000000  0.2857045550000000
  5.2283521170000000  7.7194621200000002  8.7987584610000003
  9.2604332189999994  4.7008665020000002  6.4957783200000003
  2.4117754670000000  1.1295454590000000  7.0652571110000002
  7.2033808300000004  3.8511799249999998  7.6920192729999997
  3.2693984020000002  4.8015907899999997  2.0000007080000000
  3.1542225410000002  2.5548786410000002  0.0718800040000000
  0.7721894040000000  2.4398411530000002  8.2191103309999995
  8.8307630780000004  5.0333566599999999  8.9245916619999992
  2.8094893310000000  1.6170065510000000  9.4503127689999999
  7.4367566759999999  6.3256824219999999  7.2049585929999997
  2.5885828989999999  3.4568057859999999  5.2180553969999997
  8.9001752900000000  7.6040985250000004  2.9376898549999999
  4.8926653260000004  4.6179362990000001  6.4966954870000002
  6.6391125730000002  1.1352236000000000  6.9297301960000004
  2.8513980050000001  3.8406544519999999  7.7981518999999997
  9.4208279760000000  7.7142443309999997  8.6260367149999997
  7.3552288939999997  0.7910575970000000  1.7050737110000000
 10.0902301730000001  6.2019668589999997  0.8868326870000000
  4.5143110870000003  5.0514425019999996  8.9038642649999993
  7.0865724370000001  1.5388108800000000  9.3012469610000004
  3.1134336889999998  6.3265886530000000  7.2000928609999999
  5.0709783560000004  2.4633362499999998  8.1510916869999992
  5.1489373839999999  7.3841216840000001  3.2018962270000002
  7.0352572809999998  3.4025194760000002  5.0936424110000003
  7.0812590379999998  7.8144136389999996  2.9522543600000000
  9.0876138629999996  4.1239878409999999  2.6099071829999998
  4.7197937919999999  6.3276556450000001  4.2998850510000004
  7.9856774880000003  2.2759906409999999  4.6665904789999999
  1.8835143809999999  2.2994607800000000  0.7840771010000001
  7.0127948199999999  5.5376179230000000  0.9366772130000000
  4.8430158360000002  3.9712406750000002  2.4398245859999999
  0.3903507260000000  0.3029991060000000  1.6079347020000001
  3.5259693140000001  2.4202368390000002  4.6387631159999998
  9.0083195570000001  6.5972349860000001  4.1025580090000000
 11.5288884730000003  5.7547814199999996  0.8979528300000000
  6.4598243510000000  1.8074506580000000  0.9994469730000000
  1.7526268850000000  1.2328487969999999  8.4564649930000009
  8.1908986909999992  5.0649786870000000  7.4845303090000002
  4.3332257460000001  6.6035368339999998  9.7719408370000007
  7.9507052020000000  3.1405269530000002  9.2750474040000004
  6.9278655420000002  7.4535124670000004  5.9078302039999997
  1.5230932859999999  3.1431221859999998  6.5980323729999997
  3.8237521210000001  5.0144685649999996  7.4747167850000000
  5.9817927370000001  1.1993087490000001  8.3208671790000004
  3.8626355069999998  3.0909736369999998  9.4470083349999996
  9.1665940070000005  6.5403592250000004  9.9409322749999998
  5.8934268710000000  3.1267478039999999  6.4357410530000001
 11.2478857409999993  7.4338729419999998  5.7580326380000004
