 O Al  P Al  P Al  P Al 
 1.0000000000000000
     8.7461439999999993    0.0000000000000000    0.0000000000000000
    -4.0033032423084336    7.8425059047135415    0.0000000000000000
    -1.1557778190567651    1.7173277929840409   10.5601737278477081
  48   2   4   2   6   4   2   4
Cartesian
 -1.7819787510000000  7.2246511250000003  1.4400675329999999
  0.5932757030000000  3.3853019920000000  1.0095047450000001
  4.8744539619999996  7.2880589799999997  5.4136652050000000
 -0.1332362400000000  2.9247816310000001  3.5109868240000002
 -3.9255491590000000  7.7810703520000004  2.9679658930000001
  0.1093389130000000  2.4356093699999999  5.9180339330000002
  2.7637761799999998  1.2817680950000001  4.5014300530000000
  0.5577048910000000  5.3730787659999999  3.7794953819999999
  0.5077226690000000  1.0987839909999999  0.0863178700000000
 -3.1584703350000001  7.0721773910000003 10.3650877890000004
  2.1347948369999998  1.8079049050000000  1.9989607990000000
  0.1571277280000000  5.7845313080000000  0.9105593390000000
  4.9655684359999999  3.3869565979999998  1.0102853770000000
  2.5890710499999998  7.2282320200000001  1.4373349989999999
  4.2282312920000003  2.9256509519999998  3.5088513039999998
  2.4877434240000000  6.9281649040000000  4.0718747860000004
  4.4828792840000000  2.4366491760000000  5.9147732389999996
  0.4971706140000000  7.2896376219999999  5.4177404009999997
  4.9300919130000000  5.3728372579999997  3.7724822350000000
  7.1415850389999997  1.2820946289999999  4.5001298219999999
  4.5257642190000000  5.7828720850000002  0.9121870290000000
  5.7284552870000001  4.1994781469999998 10.2259656650000004
 -1.6151694249999999  4.7712784790000002  2.2093197510000002
  4.8766365370000004  1.0998464010000000  0.0895679700000000
 -3.7826750260000002  7.9356237890000001  8.1817576859999992
  0.5511133340000000  4.9716003170000000  7.1466811589999999
 -1.8024889989999999  8.7791975640000004  6.8637667139999996
 -1.5382479800000000  3.8964177250000001  7.8678706209999998
  2.7462062850000000  4.7742524389999996  2.2054226600000000
  1.3562162369999999  4.2054714190000002 10.2223499550000003
  0.9592145880000000  2.5027642150000000  8.2684786750000008
 -0.9232079490000000  5.9525220040000004  9.0011883380000004
 -1.5583881020000001  8.8876995040000004  9.3096774930000006
 -1.5798976410000001  6.1172471279999998  6.6189273829999999
  2.4268606319999999  3.6524491520000000  5.2274203310000003
  0.4507660100000000  7.7815006039999997  2.9725069970000000
  4.9240690610000000  4.9709072860000001  7.1408936310000000
  2.5711757110000000  8.7804644740000004  6.8610474280000000
  2.8359804469999998  3.8954586349999998  7.8666172930000000
  0.5887467340000000  7.9372859629999999  8.1774523200000004
  6.5018097719999997  1.8093906030000000  2.0042334080000002
  1.2148240930000000  7.0754634830000001 10.3597370719999997
  3.4554858080000002  5.9476059189999999  9.0026169920000001
  2.8147904119999998  8.8855056589999997  9.3075090409999994
  2.7941272310000000  6.1203457119999998  6.6218014829999996
  5.3330662310000001  2.5025349260000000  8.2662459899999998
 -1.8854294579999999  6.9279034849999999  4.0675490879999998
 -1.9432995959999999  3.6519185699999999  5.2236411629999999
 -1.2780860380000001  8.2564099209999995  2.8260003220000001
  0.1527433480000000  4.2810789209999998  2.4438688950000000
 -3.4400639320000002  6.7967394719999996  4.0343101810000004
 -0.8813516200000000  2.6401331240000001  4.7866465800000002
  1.4372759090000000  2.1799314330000001  0.7013293760000000
 -1.3924591100000001  5.8090392590000004  1.0964927600000001
  4.5134684219999999  4.2804683040000002  2.4417275130000000
  3.0908988410000000  8.2563727910000004  2.8271306770000000
  3.4869681990000001  2.6400569439999999  4.7880673810000003
  0.9326771960000000  6.7971320869999996  4.0409913770000001
  2.9759800919999999  5.8125251699999998  1.0930912250000000
  5.8078958150000002  2.1794157240000001  0.7044228030000000
 -2.6143551930000002  8.8568145380000001  8.1292393050000005
 -0.8328617980000000  5.3017559329999999  7.6425915760000001
  3.9976380329999999  7.4436589209999999  9.7191796390000000
  6.7970913189999997  3.0493297610000001  9.4621536790000000
 -1.2466616330000000  7.5961057500000004  5.6937483770000004
  1.3539408799999999  3.4840512769999998  6.6691383020000004
  3.5418487370000000  5.3008043080000000  7.6417633159999996
  1.7586479300000000  8.8565109599999996  8.1264261229999999
  2.4239884429999998  3.0523393539999999  9.4619997970000007
 -0.3762182520000000  7.4471430459999999  9.7160835230000000
  5.7291701110000002  3.4837304950000001  6.6658137230000003
  3.1326743179999998  7.5971153190000003  5.6944997239999999
