 O Al  P Al  P Al  P Al 
 1.0000000000000000
     8.8398649999999996    0.0000000000000000    0.0000000000000000
     3.8360197674217371    7.5368983838976291    0.0000000000000000
     0.3977030205235101    2.5270374732071623   10.5936342217674415
  48   2   4   2   6   4   2   4
Cartesian
  6.6395259080000004  6.8930041649999998  1.5352214600000000
  9.6181444930000008  3.2835659439999998  0.8998907620000000
  3.8954171729999998  7.4333943830000004  2.9250671650000002
  9.0322360160000006  2.9779450359999999  3.3876594409999998
  5.6802126399999997  7.4804649669999996  4.4345217379999999
  9.4471696909999991  3.5928455220000002  5.8289457540000003
  3.5571414400000001  1.3947149169999999  4.7658528770000004
  9.8044544630000008  5.5444550709999998  3.8393261210000000
  9.3104746859999992  0.9949644930000000  0.3450244010000000
  7.4014336160000003  7.5545834899999997 10.4369503849999994
  2.2587368799999998  1.7515469100000001  2.0923016770000000
  8.9082581399999992  5.5067254019999998  1.2198610759999999
  5.2209700889999997  3.2514808569999998  0.8129407660000000
 11.1844003290000007  6.7929192389999997  0.9640015310000000
  4.6538281189999999  2.8471240080000002  3.3277957620000000
  8.5246756399999999  7.5001416000000001  2.9366197370000000
  4.9488716090000002  3.1811657910000002  5.8761006570000003
  9.9873657700000003  7.8342749329999997  4.8478627349999996
  4.9505113740000004  5.2964201089999996  3.7281760290000001
  8.4904469529999993  1.4443979320000000  5.1613584919999997
  4.4917073350000001  5.4214619089999996  0.9972756280000000
  7.4408231550000004  4.6808789580000001 10.1620111390000005
  6.9646200530000000  4.5464928130000004  2.2993438730000002
  4.9041650749999999  0.9263720310000000  0.1296690240000000
  1.4061639950000000  3.4128626639999999  8.1722505509999994
 10.1008773810000001  6.0040565460000002  6.7128198870000002
  5.9767017520000003  8.9371319039999992  6.8695194949999996
  7.9257619710000000  4.7897878130000002  7.5019666200000001
  2.5996753350000001  4.5654454710000003  2.1508874709999999
  2.9956446030000001  4.5978751850000004 10.1967153990000003
  3.5169750860000000  2.3372691410000002  8.7778129410000005
  9.3608886750000000  5.8916020600000003  9.0052744869999994
  5.2590596500000002  8.6137731370000008  9.2007252269999995
  7.9561367919999997  7.3311454009999997  7.4130565470000001
  2.8483511579999998  3.7932829159999999  4.8751157389999999
  7.8758453289999997  6.4145155669999996  5.0881001499999998
  5.6506433700000001  5.9012861059999997  6.5815295870000003
 10.5153465700000002  9.0024479450000001  7.0198015670000000
  3.5442031790000001  4.7727645169999997  7.5073166110000003
  9.6372667910000001  8.6628219820000005  9.2892182119999998
  6.6879191589999998  1.6210254449999999  1.9248889680000001
  2.8460878329999999  7.2759757799999996 10.2375322969999996
  5.0650370179999999  5.8833553770000000  8.9616903150000002
  7.9552007659999999  2.3849287929999998  8.9616608620000004
  3.6267848279999999  7.3156512229999997  7.4408238500000001
  5.8453385500000001  3.4211973520000001  8.1706376760000001
  3.3750897460000000  6.4376485270000003  5.1623988479999996
  7.1919813330000002  3.6373622729999999  4.9779763910000003
  6.8580839469999999  8.0300421330000002  3.0500266809999999
  9.7015083270000009  4.3528244159999998  2.5468899779999998
  4.4102730960000001  6.6381815230000001  4.0899372359999999
  8.5387696399999999  2.9149223780000000  4.8479652450000001
  1.6368397530000001  1.9944222780000000  0.7359279150000000
  7.3448835490000004  5.5878169240000002  1.2477932329999999
  5.2095604650000000  4.2004974559999999  2.4062538139999998
  8.0914732619999992  0.6465344610000000  1.6659275170000001
  4.0455581489999997  2.8638817099999998  4.7262194590000002
  9.0792856299999993  6.8309532590000002  4.1975871790000001
  2.9368510699999999  5.4118749360000002  0.9231014000000000
  5.9587800729999998  1.8994717130000001  0.6039581210000000
  2.1330526179999998  2.0130502990000001  8.2592265099999995
  8.7932023170000004  6.0902684999999996  7.5419186810000003
  5.6817127610000000  7.1585286659999996 10.0934947229999992
  8.7303764150000003  3.9563717610000002  9.1244502250000004
  6.8125062679999999  7.6349106329999996  5.9579531230000002
  2.0604367369999999  4.3568406519999998  6.3763013400000004
  4.4196845600000003  6.0627712709999999  7.5510330239999996
  6.5956806380000002  2.0356424799999999  8.4006099289999998
  4.3205190640000000  3.8372074089999999  9.2169945240000004
  9.8546564930000002  7.1777172609999997 10.1911418590000000
  6.3503084019999996  4.1342637509999998  6.4437951230000001
 11.3285357199999996  7.7967192550000002  6.0173712049999999
