 O Al  P Al  P Al  P Al 
 1.0000000000000000
    10.6714029999999998    0.0000000000000000    0.0000000000000000
     1.3763335651600428   11.5386914679962658    0.0000000000000000
     0.9192987165869420   -1.5283645084436643    5.6239805297678043
  48   2   4   2   6   4   2   4
Cartesian
  8.3840888299999996  0.1354581320000000  4.5805103069999999
  6.9968907240000000  7.0299082430000004  1.0655546579999999
 12.3588960179999994 10.1500093109999998  4.3876364800000003
  4.2963420040000004  3.1533051880000000  5.0430818420000003
  9.5936151370000005  4.0053758320000004  2.8123925980000002
  4.5109883200000001  6.3342191950000002  0.9636010540000000
  4.0449597119999998  6.9204092800000003  5.4335828839999998
  8.3669034000000000 -0.1095630430000000  0.6524507430000001
  4.1408603099999999  1.7093118309999999  2.9479101499999998
  6.6106824209999999 -0.5026478730000000  2.8645140990000000
 11.4635497419999997  4.2931086680000003  4.4383431570000003
  5.6475015119999998  4.3133985069999996  0.5768967910000000
  2.0682294460000001  6.4597045299999998  1.0401705170000000
  9.0540362259999991  5.4439134320000004  0.7283398210000001
  6.8642403779999999  7.4530599950000003  5.1082245679999998
  3.4392829400000000 -0.5731849640000000  3.3140210809999999
  3.5528254380000002  4.0048247269999999  1.8091541560000000
  7.4804367349999996  5.3317714809999996  2.9008385930000000
  2.3467655129999998  0.9158599240000000  1.1774337539999999
  9.3257171710000009  5.9162797920000001  4.5089446439999996
  4.8108293760000000  5.3335916299999999  3.6479815460000000
  2.3880073899999998  6.0018454400000003  3.9165495199999998
 11.9602435420000006 10.2957143769999995  0.7379303080000000
  4.9364686280000001  0.4984633860000000  5.0847262060000000
  6.1995680809999998  3.1543259880000001  2.9257622780000001
 11.0845678809999999  8.0108999959999991  4.6816687330000004
  1.7144746040000001  8.3789160190000000  2.3652692540000002
 10.4653353879999997  1.9804243180000001  4.7364206209999997
 11.2705323879999995  4.3503827030000002  0.7300199320000000
  8.7554215109999998  7.7356103489999999  2.7715051449999999
 11.0151299379999994  6.1735355030000001  2.7305445520000000
  6.1091931050000001  1.4047634360000001  1.1860146860000000
 10.5465029989999994  7.6842790040000004  0.7723840160000000
  1.3471756340000001  2.6538512559999998  2.6098082030000000
  7.6951595639999999  3.3209794189999999  0.8591319140000000
  8.1011683720000001  9.2401983810000008  0.8221216130000000
  6.6088576689999998  8.8138928700000001  2.7691361230000000
  0.5923734720000000  0.2919475660000000  2.8317617350000002
  4.0468569189999997  7.6673486129999997  3.1303074199999998
 10.5888711329999996  1.5840870690000000  0.8333951880000000
  8.1788746979999996  1.7574159819999999  2.7187375430000000
  6.0392809219999997 11.0682368590000006  0.9441834830000000
  8.6727260729999998  9.4884447279999993  4.7323081059999996
 10.2260770720000007  9.9831362739999996  2.8376402989999998
  4.4192675220000002  9.3064562100000003  1.5099251960000000
  8.1934990120000002  3.6677782159999999  4.7023514479999999
  2.4722080439999998  1.1277590989999999  4.7136950210000004
  5.0811401930000004  9.1934540980000001  5.0347985120000001
  7.2440277000000002  5.2561565510000001  1.0467011710000000
 11.3153954179999996  4.2619395410000003  2.5111929050000001
  3.8334236570000000  6.4052144029999996  4.0515329140000000
  7.7749721269999998 -0.9498093610000000  3.7149271669999999
 11.7192293559999996  9.1733359799999992  5.4801163710000003
  8.6271358980000006  4.7671127249999996  3.6815526119999999
 11.3643508739999994  6.1938713779999999  4.6044790270000000
 11.5264790430000001  0.4133183350000000  4.7109817810000001
 11.0270904129999998  3.2713628149999998  5.5244776550000001
 11.6042491489999993  7.1833104280000004  1.7132153980000000
  7.6096676270000003  8.1427122759999992  1.8613891110000000
  5.1168928610000002  9.9732364279999999  0.2849482810000000
  4.2292230210000001  4.8620981329999999  0.6749287710000000
  7.0532383100000002  2.4098256349999998  1.9335547860000000
  8.5902785020000003  7.6149374260000000  4.5602313480000003
  4.5419280180000001  3.5795087180000000  3.3224316379999999
  5.0180674300000003  9.2316011200000005  3.2751714800000000
 11.9345268299999994 10.1308525270000001  2.5215530350000002
  1.0742117140000000  1.4122158890000001  1.7986889970000000
  3.7766016570000001  0.6770936510000000  4.0947390329999998
  4.1098112290000000  1.2936674180000001  1.1211004040000001
  7.9841456790000001 11.1309457960000007  1.0436375410000001
  8.5892378249999997  1.8695523249999999  4.4973844170000001
  3.4415101710000000  7.6652528080000000  1.3520713280000001
