 O Al  P Al  P Al  P Al 
 1.0000000000000000
     9.1372070000000001    0.0000000000000000    0.0000000000000000
     0.2031702523334677    5.6639912611622867    0.0000000000000000
     2.7473563481779162    0.2168137407911744   13.1954418115838248
  48   2   4   2   6   4   2   4
Cartesian
  5.1875925089999999  5.0681562920000003  1.6620073369999999
  9.6111445629999999  2.1620779149999998  2.4108484039999998
  2.4154057660000001  2.6226357370000000  4.5654141499999996
  5.9437636710000001  1.1029797589999999  6.7573779160000003
  3.6101083530000002  2.5281533600000001  6.7187549449999997
  8.1363234080000009  2.2365053559999999  6.7871153160000004
  4.6342648659999996  4.0805435579999996  4.2107196379999996
  6.8422276499999999  2.2212607279999999  4.6744931259999998
  2.6326060970000000  0.9959346620000000  2.1621352850000002
  7.2290304750000001  3.3505730130000000  2.3203450299999999
  1.7612659690000001  5.1216464730000002  0.0718238120000000
  4.9659050940000000  2.2685651290000002  2.2630352710000001
  7.1258313519999996  0.9769182800000000  2.2937868859999999
  9.5246221529999993  5.1306497719999999  2.0345400640000002
  2.4950986300000002  5.2975557400000000  4.3547171430000002
  6.9512276389999998  5.0541440690000003  4.3767363279999998
  4.0020463319999999  5.2805259339999999  6.4031127349999997
  9.0300871080000000  3.6724547550000000  4.3770275800000000
  4.4456882369999997  0.9229388680000000  4.3870217089999999
  8.9122043140000002  0.5899499410000000  4.5048722540000004
  2.6620868629999999  3.4472166400000002  2.2640215920000002
  6.2569155070000004  2.2779952209999998  0.2160546550000000
  1.6624283950000001  2.3530433030000002  0.2433497870000000
  6.9048924930000002  4.0454001110000002 12.9728194939999995
  2.8492851170000000  0.9706995150000000  8.5770153859999994
  7.4188509710000003  3.8727505149999999  8.6030382220000003
  8.7583776929999999  1.7752572970000000 11.0919214739999994
  4.2252626610000004  3.6622333370000000 11.1222499020000001
  6.6912136919999998  0.9192247200000000 12.9690285599999999
 11.3734159720000001  1.0897904530000000 13.1698054039999999
 11.0268428069999995  2.7261061660000001 10.9933647729999997
  6.4656398319999999  5.0145304780000002 10.7066483259999998
  9.7307399110000006  2.4985137360000000  8.8623227860000000
  5.3866638829999998  5.2921922140000000  8.5686105149999996
  1.5527601990000000  1.2046537250000000  6.3664619680000003
  8.3605469350000003  5.0016763800000001  6.4248645099999999
  3.0086503269999998  4.1901300629999998  8.7167384489999993
  7.6445563989999998  0.5574293330000000  9.1748353680000001
  8.8817883749999993  4.0284359670000001 10.6118702630000001
  4.1802231420000000  1.2068790170000001 11.0281464719999995
  9.0209163229999998  5.4076848389999999 12.6120342270000005
 11.4191085389999998  4.2137702189999997 13.1504079659999995
 10.9182734260000007  5.6580410590000003 10.4618243189999998
  6.3676781929999997  2.3984414290000000 10.9202804600000007
  9.9773671149999998  5.3605358289999998  8.2628174080000001
  4.9049850110000000  2.4672830339999998  8.9197727919999998
 10.4826821359999993  3.6511575980000002  6.5879223539999998
  5.9518227340000003  3.5667937200000002  6.6026402409999996
  3.9241091780000001  2.5099283920000000  3.6374337589999999
  8.3309496460000005  2.1455723550000001  3.6231079180000001
  2.1794606810000001  2.5345515789999999  6.0480689999999999
  6.6337222840000001  2.3021633810000002  6.1698788249999996
  1.8091576760000001  2.2342620700000002  1.7373365300000001
  4.9493338849999997  5.0970333840000004  0.1414953120000000
  6.5857443590000004  5.0216137400000003  2.6791776260000000
  2.0549259019999999  5.1200453929999998  2.6500034420000000
  3.9498295689999998  5.3153412119999999  4.8286400130000002
  8.3813709850000002  4.9499506230000003  4.8463792280000000
  9.4026721139999996  5.2169797899999999  0.4797736450000000
  6.3465286939999999  2.2120877139999999  1.7085506530000001
  9.6872782530000006  2.7821859799999999 10.3571473229999995
  6.8231253980000002  5.1121459839999996  9.2199745489999998
  2.8874575130000002  2.6481042449999999 12.4410844879999996
  7.4853507349999999  2.4385806479999999 12.3294756210000003
  4.4807818340000001  3.8956849189999998  7.6454445499999997
  8.9877195180000005  3.6810466069999999  7.6821400730000002
  2.2403859690000001  5.4556740479999997  9.0229731300000005
  4.9513865299999997  2.4290196950000000 10.4756804490000004
  5.0111917659999996  5.2512258169999999 11.6088651360000004
  9.1555322570000008  5.7173076370000002 10.8100182799999995
  4.3711369350000000  1.0555471599999999  7.6352765339999999
  9.1439332669999995  0.7569720920000000  6.9400811659999997
