 O Al  P Al  P Al  P Al 
 1.0000000000000000
     8.9981620000000007    0.0000000000000000    0.0000000000000000
     0.4351299890914588    6.2098256251924866    0.0000000000000000
     4.3118465114602627    1.4228486587590801   12.8078302581789583
  48   2   4   2   6   4   2   4
Cartesian
  7.8646990580000002  1.4493556180000000  1.9709023580000000
  5.4318499270000000  5.8071487140000002  1.9587155210000000
  2.5285616080000000  2.9015041060000000  4.1607383039999997
  5.1083461180000000  5.0774457420000001  4.4116843039999996
 10.7331922700000000  1.5772352980000000  6.0968339739999999
  6.4931384249999997  4.9696133939999996  6.5194075900000001
  2.8842458299999998  6.5575178290000000  4.0654583710000001
  6.2426312429999999  1.5604117289999999  6.0948887230000004
  5.2822906549999997  3.3060754299999999  2.0731482969999999
  9.9457819589999996  5.7923998389999998  1.9549208600000001
  4.9100768239999999  1.4886371650000001  0.0396412580000000
  5.6557803829999997  5.9548857179999999 12.7004105040000006
  9.7678048369999999  3.2893819889999998  2.0011678599999998
  3.3530804729999999  1.4828376280000000  2.0160358610000002
  9.5994139850000000  5.0667458420000004  4.3993641380000001
  7.3855269669999997  6.5561674529999996  4.0460874389999999
 10.9862639130000002  4.9579145789999997  6.5072751909999997
  4.8523924200000002  1.6754973660000001  4.0019537659999997
  9.3544044189999997  1.6744021350000000  3.9757439930000000
  7.0447795620000004  2.8858398630000002  4.1507698130000001
  7.4733553319999997  4.3417576120000003  1.9256076410000000
  2.9748648549999999  4.3235654459999999  1.9135189239999999
 10.1302844299999997  5.9163349380000003 12.7361967049999993
 11.5246933130000002  3.8648641110000002 12.6247825789999997
 10.5481591120000004  3.3408740230000000  8.4448658020000007
  6.2896314699999998  7.0263962619999996  8.5306683040000006
  6.3217247529999998  5.1054744879999996 10.4291689460000008
 12.7529566019999994  6.6842011259999996 10.5717809509999991
  4.7270427259999996  2.8005772150000001 12.7845057210000004
  6.9858401360000002  3.8863172869999998 12.6555140890000004
  8.1196594419999997  6.6663473990000002 10.6441296360000006
  5.5685932190000003  2.1638664580000002 10.5449981860000008
  8.6463170950000006  4.2084670989999999 10.6567194420000000
  3.8533632380000000  2.3081266130000002  8.6104709019999994
  8.8905691769999997  6.2862371760000002  6.4446800089999998
  4.3050146390000004  3.7437331210000000  6.3485021960000001
 10.8060585909999993  7.0451112519999999  8.5192898469999996
  6.0530200839999999  3.3179945659999999  8.3861259330000006
  7.9952437769999998  5.2021002760000004  8.5329987569999997
 10.8581907199999996  5.2904912319999999 10.5210813020000007
  7.7518633760000002  6.1814853190000001  0.0886103290000000
  3.3053405420000002  6.2206187950000000  0.1497845040000000
 10.0511821969999993  2.1100000510000001 10.5753376259999996
  4.0868617340000002  4.1816967820000004 10.6674087059999998
  8.3525545040000004  2.3066873980000002  8.6306105639999995
  3.4633375480000002  5.1718080000000004  8.5172127300000007
  8.8051036319999998  3.7434046610000000  6.3545213059999996
  4.3862692729999999  6.2834198199999998  6.4588932600000000
  8.2415106560000009  2.9956232670000000  2.8329956200000002
  4.4981771769999996  6.3884264660000003  3.3234286129999999
  1.8013677440000000  1.6361321419999999  4.5751821540000002
  5.0421787800000004  5.0053430060000004  5.9315672020000001
  6.0151440269999998  4.4960259049999998  1.5014987490000000
  7.9680239349999997  1.2849321610000000  0.4157268660000000
  8.9980165119999995  6.3795893489999997  3.3068691320000001
  3.7485281160000001  3.0139475400000002  2.8723140420000002
  9.5343832119999998  5.0026449959999999  5.9181687710000004
  6.3081889799999997  1.6287592259999999  4.5761342020000004
  3.4753194590000001  1.3470069320000000  0.4649701850000000
  1.5249084260000001  4.4871712529999996  1.4749004290000001
  7.7981518940000001  5.2978455130000004 10.0789617870000008
  5.3187946960000003  2.1504169869999998  8.9980107440000001
 11.1585140719999991  6.9671478090000001 11.5447254140000002
  5.5048996199999998  4.0908143900000002 11.7271244449999994
  3.0869633190000001  3.6134984330000002  7.6378714519999997
  7.2766789999999997  6.4727398530000002  7.1867253089999998
  9.8189899930000006  2.1498830590000000  9.0267038080000006
 12.3499365890000004  5.3225429059999998 10.0540940079999999
 10.0115312379999999  4.1291310819999998 11.7676565580000005
  6.6356665389999998  7.1074979450000004 11.6310036340000007
 11.7616075510000009  6.4666584809999996  7.1676610519999997
  7.6091182479999997  3.6371712889999999  7.6614350499999997
