 O Al  P Al  P Al  P Al 
 1.0000000000000000
     8.8249770000000005    0.0000000000000000    0.0000000000000000
    -0.3572355978452920    7.0759090090159518    0.0000000000000000
    -0.2421963489827006    0.3357043237062383   11.1756701316359734
  48   2   4   2   6   4   2   4
Cartesian
  0.6080615940000000  6.4967663360000003  2.6407301219999999
  4.8593466110000003  4.7345972649999997  2.8682596450000002
  4.7729285399999997  6.6756908150000003  4.7506077990000000
  0.6611136140000000  1.8766736350000000  3.4757192720000001
 -0.2179058030000000  5.0740356310000001  6.3197268089999996
  4.1707347239999999  2.8573734609999999  6.1239294219999998
  7.2751532079999999  0.6216184300000001  3.6141551690000000
  2.9895350740000000  3.5570191530000002  4.0189118710000002
  7.0256520419999999  2.8306271839999999  2.5032965940000000
  1.4569205629999999  3.1004443629999998 11.1016116799999995
  5.9076699990000003  0.8958411750000000  1.3990899200000000
  1.8477342770000000  0.3168120600000000  0.3996077210000000
  0.2249029160000000  4.2187608950000000  1.5879801080000000
  3.4692562979999999  6.8520537670000001  2.6561098109999999
  5.0390000019999999  2.2050270500000000  3.8942795650000002
  0.6506058970000000  4.4210732740000003  4.0906296460000000
  0.0480125120000000  0.6031156280000000  5.4634842969999999
  4.1598424740000004  5.4018125330000002  6.7382104399999996
  7.5881773709999996  2.7300334540000000  4.9308659810000002
  2.9134864480000000  1.1837371489999999  4.7580548320000000
  7.2553031660000000  5.3423900590000004  2.9187015879999998
  2.5530398550000002  1.9647479150000000  2.0711606730000001
  5.9450088560000003  3.2089392170000002  0.4034660460000000
  2.6021405330000000  4.6599568450000000  1.7867880629999999
  4.2129461419999998  0.7816422280000000  7.5738909430000003
 -0.0387292790000000  2.5443773150000002  7.3465148229999997
  2.9728543269999999  6.9621942670000001  9.8150199310000001
  7.7380340849999998  6.3831048270000004  8.8147716989999996
  7.8998218299999996  6.1580317630000003  0.6203669300000000
  3.6751078760000002  2.0428572800000002 11.1283372739999997
  5.7458893189999998  1.1209609229999999  9.5942594119999995
  0.9034294290000000  5.5718098789999999 10.2618696200000006
  2.2183619950000000  2.6184870400000002  8.4280796149999997
  6.6200651109999997  4.4480885389999996  7.7108691250000003
  6.0580994019999999  4.5486956970000003  5.2832523389999997
  1.9075540259999999  6.0956327830000001  5.4559480980000004
  4.5957350930000000  3.0599786490000001  8.6265550819999994
  1.3510302649999999  0.4265352260000000  7.5588287589999998
  3.1217319020000001  4.5142558130000001 10.2885938659999994
  0.2616498070000000  1.4846022839999999  9.5161586679999992
  8.0786104850000005  1.8929872340000000  0.5000608890000000
  4.5583938010000002  5.7943347720000000  0.6987444510000000
  5.5674600649999997  5.3860132370000002  9.7142695069999991
  7.7013641950000000  4.0701902719999996  9.8104583559999998
  2.2681174430000000  5.3141482599999996  8.1433901669999997
  6.3903935680000004  1.9364533100000001  7.2956551159999998
  6.3707465020000003  6.6571879210000002  6.5997739400000004
  1.8317373640000001  3.7224597940000002  6.1960343110000000
  5.5311578280000004  0.5583353530000000  3.3060789229999998
  1.6157303839999999  3.5302796989999998  2.8553644020000002
  1.0796384200000000  4.8021998909999999  5.4792346370000002
  8.2756584009999994  1.4543557000000000  4.3703395350000003
  2.4939990330000001  1.6681715140000000  0.5356603390000000
  3.8620659050000001  5.4401467080000003  2.0070972120000001
  6.2932796320000000  3.9750919730000001  3.5895575360000000
  2.1338841930000001  0.5696293609999999  3.2528381259999999
  3.7417037190000002  2.4769629929999999  4.7351384689999998
  5.3702487909999999  5.8242341580000003  5.8436874689999998
  8.3872327539999993  5.6156626779999996  1.9869968750000000
  6.7526950919999997  2.1877680559999999  1.1808439790000000
  0.9583098350000000  1.8385507990000001  8.2078588030000006
  2.3268888840000002  5.6109071479999999  9.6788641620000000
  4.6802426460000000  0.5071627190000000 10.8855879570000003
  4.6858552849999997  3.8661004170000002 10.2449309530000008
  8.1146353219999998  6.7205124559999998  6.9080561569999999
  3.2054160939999998  3.7479930580000000  7.3594349410000000
  6.8932686230000000  5.0911096699999998  9.0331858839999999
  5.2586949140000003  1.6630857710000000  8.2275178699999998
 -0.1071638200000000  3.7488147430000001 11.1450923690000003
 -0.1017376910000000  7.1074165169999999 10.5047850260000004
  7.3526412130000001  3.3037311649999999  6.6244853360000002
  2.6870972219999998  6.7089993139999997  6.9616267629999999
