 O Al  P Al  P Al  P Al 
 1.0000000000000000
     7.9126310000000002    0.0000000000000000    0.0000000000000000
     0.4637632259380179    6.9648509521269411    0.0000000000000000
    -1.4195720952266877   -0.4058846356820653   12.5333284202165132
  48   2   4   2   6   4   2   4
Cartesian
  6.7631348679999999  0.5055944520000000  2.6586430590000001
  2.6635685819999999  2.9422018250000002  2.7448547809999999
  1.7015063870000000  4.2437329989999997  5.0051149959999996
  5.5379081960000001  1.7300468040000001  4.8213405749999998
  3.2797718680000001  5.2539914349999997  6.5757059709999996
  7.0152990849999997  2.5093497770000002  6.5999401600000001
  2.8849475830000002  6.2378556590000001  4.2056329989999996
  7.1258417329999997  4.0794134040000003  4.4754971939999999
  4.8925788020000001  4.0819073760000002  0.3814821980000000
  0.6841513650000000  6.3549968549999996  0.2971133630000000
  3.9573815849999998  0.8119047000000000  2.8408976319999999
  0.9978976280000000  5.1491532429999998  2.5254366400000001
  5.5549863520000002  2.6610216969999998  2.3794098410000002
  1.5962302620000000  0.7540927980000000  2.1269031080000000
  1.1541771130000000  1.7107728120000001  4.6790766630000000
  5.7689243790000004  6.0034748100000002  5.1009932339999997
  3.0143385320000000  0.8770088140000000  6.1729294619999999
 -0.3451664690000000  5.1868458860000004  6.7828092240000002
  4.0917775440000002  4.0302271029999996  4.5977429780000003
  0.1855928690000000  6.4111230330000000  4.6821415190000000
  5.3467606319999996  5.2771131340000004  2.6458489049999998
  7.3794776490000000  4.2936110110000003  0.7524459470000000
  5.8925700699999997  6.4393088470000004  0.5832878490000000
  0.0579245620000000  2.6360701700000000  2.4438489300000001
  3.1084326930000001  3.9745677119999998  9.0617007479999998
  5.5193287480000004  4.8809840080000004 10.8800869690000006
  0.3212100980000000  0.2805254830000000 11.1643429770000004
  3.2520114880000000  0.1718438980000000 11.0505388660000001
  1.9098663950000001  4.1279223930000004  0.4731750260000000
  3.2720047000000001  1.7718359170000000  0.5993271690000000
 -0.3336969700000000  1.3031797409999999  8.9914679379999995
  7.1312766080000003  5.8048636460000003  9.1936316369999993
  5.8357071710000001  0.5002529990000000 10.6130453599999992
  4.7588384880000003  5.7145967869999996  8.6235841220000005
  1.5942612340000000  2.7164094290000000  7.0580289420000000
  5.4956809419999999  0.6020769380000000  7.1480669780000001
  1.7940980030000000  6.0654230179999997  8.8312987550000006
  6.0796012260000003  3.5906195589999998  8.8127743980000002
 -0.8268178480000000  2.5361166279999998 11.1426813700000000
  3.2591417269999998  1.2472645880000000  8.7630224129999998
  6.7446584600000001  1.7417584260000001  0.4056979950000000
  3.5758344830000000  6.0721437810000003  0.9607473910000000
  2.0225202890000000  4.9153591719999996 11.0986187629999993
  4.3381157979999996  2.4567784960000001 10.6715171110000000
  0.7027286650000000  3.8629617980000002  9.2727507710000001
  1.9485470810000001  2.2157968549999998 10.7144604349999994
  0.6521054020000000  0.4356694020000000  6.7459898550000004
  4.5938351539999998  2.8970101540000002  6.8080386759999998
  5.2943155890000000  0.2488237710000000  3.7606518350000000
  5.5123170640000003  3.7764592370000001  3.6933039299999999
  3.0241068580000001  4.9977927790000001  5.0436467640000000
  5.6456806439999996  1.9197714299999999  6.3549850890000004
  2.8792547200000000  1.5749626800000001  2.1152428219999999
  0.7990409420000000  5.0037425579999999  0.9785605030000000
  1.1122269780000000  3.3245472800000000  3.6261218949999998
  1.3249738110000000  6.7669720580000003  3.3939608630000002
  1.5881042759999999  1.4228947240000001  6.1314998500000000
  7.1878895429999998  5.4041449530000003  5.3257485950000003
  4.9469070799999999  5.4264422220000004  1.1635360690000001
  6.7842067860000004  1.8873318870000000  1.9342641700000001
 -0.7126087920000000  1.1549718700000000 10.5200399149999999
  5.8721029920000003  4.9906244940000004  9.3452767290000001
  1.8884039530000001  3.1622069950000000 12.2017355280000004
  5.6757256009999999  6.5181063510000001 11.9536524409999991
  3.7893846689999999 -0.0016571880000000  7.5410982850000003
 -0.2590348010000000  2.9734122859999998  8.1648845540000003
  1.8920410960000000  4.7358998540000004  9.5711072549999994
  3.2369851270000001  1.5222156630000001 10.2584557269999994
  5.4894110639999996  3.0779492930000001 11.7967218690000006
  1.7232122919999999 -0.2620924590000000 12.0113958820000004
  3.1651963840000001  3.5864818330000001  7.3989059429999999
  0.2447884890000000  6.5730586600000001  8.0080625760000004
