 O Al  P Al  P Al  P Al 
 1.0000000000000000
     7.3834869999999997    0.0000000000000000    0.0000000000000000
     1.3196215644216898    8.5827093645269290    0.0000000000000000
    -3.5350611312371010    0.5011595229521043   10.8053864850384738
  48   2   4   2   6   4   2   4
Cartesian
 -1.6017463500000000  2.4879444789999998  6.7148797629999999
  7.0207290049999997  6.5778976819999997  1.7007931730000001
 -0.6390702300000000  2.9689365200000002  9.1238228629999991
  1.0084680109999999  5.2610901739999996  3.6052092509999998
  4.7765930560000003  2.6453286409999999  4.3874981069999999
  2.1512183629999999  3.2936490680000001  5.4680144439999996
  2.1370595539999999  0.5325553810000000  8.8933017359999997
 -0.4949259090000000  7.9578096250000003 10.4838387890000000
  2.4367998709999998  5.6634711670000000  6.1542297599999998
  4.7266875959999997  7.3734130010000003  2.3827481490000002
  4.8276553389999997  5.3636061960000001  1.0077740280000000
  4.5273586490000000  6.9748996459999999  9.7946801059999995
  6.6065652850000003  3.2476201480000002  1.5809276630000000
  4.0436639779999997  7.0433339049999999  7.1352872090000004
  3.3515394640000000  4.7815113460000003  3.5765542159999999
 -0.1233366410000000  5.4097782360000002  9.8074301780000006
  4.2971843720000003  2.7867611029999999 10.3544988670000002
  4.8604379199999999  4.6659568670000002  5.8778109939999998
  0.0408088510000000  7.8951859410000003  3.7961660490000000
 -2.0832935479999999  4.6614708250000003  8.4563045270000003
  2.9023305189999999  4.7622857359999999 10.0731945290000002
  1.9187835900000001  8.0952371729999992  6.5033636469999996
  1.3369465650000001  2.5061904369999999 10.6024367319999993
  5.2169271479999999  7.3211278249999996  4.9919100780000001
  0.9753799970000000  2.0762449410000001  7.2567001419999997
  2.3625209990000000  6.3981714140000001  1.7050896639999999
  1.8608229900000000  6.4613594089999999  8.3927058040000002
  2.6414168579999999  1.1151586370000000  3.7232563260000000
 -0.5764768960000000  8.6995543340000001  6.0259177870000000
  7.9651633479999999  8.4863268319999996  0.3669231900000000
  4.5899178830000000  0.9972360080000000  8.6054017880000000
  0.6789887550000000  0.3694672330000000  2.3723679590000000
  3.6500996020000001  2.9829945150000001  1.8239027360000000
  3.0718717459999998  1.1146359029999999  6.3026413769999996
 -0.4250701230000000  3.6983828070000002  4.9246415519999998
  2.7889629949999999  7.0094122849999998  4.0758512229999999
  2.9004238800000000  0.8913083580000000  0.7070758780000000
  0.3494302670000000  4.5652719729999998  7.4794170560000000
  5.8071157990000000  5.2276431240000001  3.2791086319999998
 -0.4519298460000000  0.5135321590000000  8.5935379510000001
  2.2361815020000000  7.7775448259999997 10.4823635769999992
 -0.0636148200000000  6.2680636459999999  5.6907259449999996
  1.2015555490000001  2.8093683710000001  3.0569574089999998
 -0.9176281050000000  7.3544626649999998  8.1121752350000005
  3.1569061939999998  3.1287925099999998  7.7982724440000002
  5.0309319129999999  0.9975239590000000  2.1123359939999999
  1.1848912119999999  4.3795720679999999  0.6718813400000000
  0.2108784440000000  1.2157641960000001  4.7018288970000004
  1.7092269659999999  6.0323163510000004 10.0913165249999999
  0.8765957490000000  4.7800114999999996  5.7534057630000000
  3.6707900830000000  8.2021567460000000 10.1126694219999997
 -0.4540720740000000  8.4754278519999993  9.0076031969999999
  2.4140523709999999  2.4008164939999999  6.7032167910000000
  5.5185225229999997  3.3808326310000001  5.4770122619999997
  4.0152721920000003  6.0135362609999996  5.1092775420000001
 -1.5363879949999999  6.2481012290000004 10.7548580900000008
  6.7359862100000001  7.4721051149999997  5.0407173179999996
  1.1500323349999999  1.3223625569999999  3.5478053410000001
  4.1376095319999999  1.7292946460000000  1.1202916150000000
  7.3361122989999998  3.5329404680000001  0.2576443580000000
  2.5169698280000001  6.8902957489999999  7.1351133300000003
 -0.5909002330000001  4.4546016740000001  8.6321322909999996
  5.2401168440000001  8.3699478729999992  7.0981936909999996
  3.4084248029999999  8.1065407090000008  1.4305752560000000
  4.7472912440000004  2.8665523089999998  8.6186181770000001
  3.1934995339999999  2.9137549370000002  3.5583056890000000
  5.5860635969999999  6.1480878529999998  2.0692695600000000
  2.3307844649999998  5.8840163280000004  3.1838157790000001
  7.5521379279999996  8.3189801259999996  2.0931807739999999
 -0.3320918480000000  1.0041814220000000  6.4195273630000003
 -0.2122442320000000  4.0139910849999998  3.0834437850000000
  0.7734351470000000  1.7576664810000000  9.0938804690000001
