 O Al  P Al  P Al  P Al 
 1.0000000000000000
     8.7435259999999992    0.0000000000000000    0.0000000000000000
     3.9974159989841764    7.5367998899927233    0.0000000000000000
     1.5561437230276338   -1.0709188881284528   10.4379559264999955
  48   2   4   2   6   4   2   4
Cartesian
 11.0673365799999992  5.2360687229999998  0.8010614010000000
  6.4278036790000002  5.1006577880000004  1.4577148890000000
 11.0620251639999996  5.8211924929999999  3.3920923379999999
  7.3507821719999997  5.0754786400000000  4.3615790380000004
  9.8969524860000000  5.9194859810000002  5.6344912799999998
  3.1233330250000000 -0.1956835320000000  3.1559462219999999
  4.3179389329999998  4.3658691770000004  3.5628879050000002
  8.7714652510000004  3.2958118079999998  3.0027521890000002
  4.7090501229999999  6.7203171700000004  2.2364202839999998
  8.9974024920000009  4.1788838359999998  0.1067979480000000
  6.2225072519999998  5.0141898229999997 10.2241199960000007
  9.1653648089999997  6.7180906660000002  0.0890577410000000
  4.4862338360000003  1.3790682430000001  1.3260110800000000
  7.0633368210000000  2.6927486400000000  0.4153327170000000
  3.9933749010000001  1.9953928270000001  4.2415107010000002
  9.6677303279999993  1.2482849469999999  3.8623634889999998
  5.5908974840000001  3.1210735949999999  5.4674378509999997
  8.0747576530000007  2.4563567989999999  5.3570917969999998
  5.6043926219999998  0.2383286690000000  4.0811780270000000
  3.6416912450000001 -0.3283856070000000  5.6454154619999999
  9.1135327910000008  1.3475312540000000  0.9223201870000000
  4.3127450119999997  3.7583386580000000  0.7306669880000000
  8.9427926590000002 -0.6446039050000000  9.9166634929999997
  2.4859521519999999  2.5125816749999998  2.1157339860000000
 12.1911757119999997  4.5864874259999997  6.2271509299999996
  8.3492457120000001  4.5334808549999996  6.9396124129999999
 12.4902464410000000  6.7009978099999996  7.4395041250000000
  7.8339740400000002  6.4965293920000002  8.5185218010000003
  8.9060423380000007  5.7158578320000002  2.1635156649999998
  2.3474566810000002 -0.0273250920000000  0.7311079570000000
 12.7300704679999992  4.6492676340000001  8.6608081499999994
  8.4651114839999995  4.1468494050000002  9.3421898359999993
  5.8310001580000002  5.1622749619999997  7.0050295660000002
 10.1466370769999994  5.5170967490000002  8.0616650260000000
  6.1805829799999996  2.9126271269999999  3.0745884060000002
 10.3131292200000004  3.4110773740000000  4.9972344540000000
  6.2704808810000001  0.9764746050000001  6.7480413250000000
 10.1386330919999992  0.9519437420000000  6.4013241540000001
  5.8672911990000003  2.7923636560000000  8.5043249420000002
 10.3908193240000006  3.0311385789999998  7.7356710540000000
  4.2608256280000001  1.2724980530000001 10.1132228009999992
  6.8841543930000002  0.5871703290000000  1.9113840179999999
  6.4518954129999999  0.3327765080000000  9.1473724559999994
 10.7094424260000007  0.9706494780000000  8.8194659760000000
  8.1171470800000005  1.7788843260000000  8.0433826370000006
  3.7118652129999998  1.7334402430000000  7.1171681070000004
  7.8917225809999998 -0.2095846310000000  4.9674892410000000
  5.4257853149999997  6.4263515739999999  4.7854537080000004
  4.0593180200000001  6.0571780530000003  3.7439020589999998
  7.3701160850000003  4.2327221630000000  2.6364419579999998
 10.5516888099999999  6.6559442799999999  4.5303357809999998
  6.8856385089999996  6.6162419049999999  4.4982534269999999
  5.5297668760000001  6.2014371239999999  1.0110591970000000
  9.5742249939999997  5.3964512710000001  0.7710015370000000
  5.1190292240000002  0.0834732970000000  2.2698925540000001
  1.6808030389999999  0.9331061270000000  2.3166761960000000
  4.9896899220000002  3.1166809160000000  4.0017667819999998
  9.2334217929999998  2.6396117380000002  4.2885791619999996
  7.5471753059999998  1.2651529370000001  0.7297560279999999
  3.5251010510000000  2.5021515929999998  0.9955244070000000
  4.3440395860000001  5.2447649280000004  7.2617124710000001
  8.6290901309999999  5.2359423200000004  8.3117473420000003
 11.4683309120000008  6.3621990810000000  9.0775631049999994
  3.0980257600000001 -0.0298025030000000  9.8335185920000008
 10.3850772300000003  4.4106421549999997  6.4663711800000003
  6.9589290840000002  4.1106088930000002  5.9577113490000002
  6.5635540429999999  1.4965700280000001  8.2101967019999993
 10.9931559290000003  1.6254719449999999  7.4414992320000000
  5.0418227599999996  3.7143025060000001  9.8987282350000001
  9.3075036289999993  2.5381888699999999  9.4032396610000006
  4.6735561910000003  1.1634742450000000  5.7175991840000000
  8.3591843220000008  0.7966118520000000  6.3921986080000002
