 O Al  P Al  P Al  P Al 
 1.0000000000000000
     8.5668799999999994    0.0000000000000000    0.0000000000000000
     2.5292241587736628    6.9215744414325027    0.0000000000000000
    -1.6543372043525155    3.5547717461696973   11.7981959613728140
  48   2   4   2   6   4   2   4
Cartesian
  4.4409658360000002  0.6544874730000000  1.7205302620000000
  3.1704760510000001  3.1620124660000002  2.1008209070000001
  6.2088032599999998  7.6269751110000001  3.9768874090000002
  8.8875802220000004  4.6944229620000000  5.4457204580000003
  6.8275685590000004  6.4782573740000000  6.1148794940000002
  0.7383049730000000  3.8812008929999999  3.0977139500000002
  5.0514585880000000  2.7271406969999998  4.2703389730000003
  0.7383788640000000  2.2806887499999999  4.7634466860000000
  4.9677525039999999  5.7959966319999996  1.9472758870000000
  7.4737863850000004  4.9223147650000003  1.7023850460000001
  2.4683697119999999  5.8643134039999998  2.4008975060000002
  5.0451402370000000  7.4163287320000002 11.3436465050000006
  5.7597483089999999  3.1107233839999999  1.7762588280000000
  1.3594673600000000  0.9912782970000000  2.4438604079999999
  4.6326613569999999  4.3723132270000002  6.0183934490000004
  7.1633763869999996  1.5258945410000000  3.3574227689999998
  6.7986923450000001  3.3658252759999998  6.0178600380000002
  2.1451095329999998  6.6072609470000003  4.6761645810000001
  6.2348146499999997  4.8847133469999999  4.1304314079999997
  2.6121311129999998  4.0763888870000002  4.7168555669999996
  2.1950776120000000  7.4909731150000001 11.5463045090000005
  8.1370014939999997  2.5602764759999999  1.1580606540000000
  2.2587816009999999  2.0099875200000001  0.1507383390000000
  9.0393352129999993  6.7223940950000003  0.7767270230000000
  6.6915032080000003  4.8804219430000000  8.1377865610000004
  2.6678393379999998  4.9791912949999997  7.1088820569999998
  4.6852837249999997  5.9667569560000002  9.2097281910000000
  0.2348436380000000  3.7601332930000000  9.8530271900000006
  5.1476595649999997  9.9849731669999997 11.2952740079999998
  3.2672782520000001  6.7731898279999996  0.2888543640000000
  7.8818737050000003  6.4796204309999998  9.9901069279999994
  2.1084003450000002  5.9367275849999999  9.4145287860000000
  6.2930396450000003  7.8695926969999999  8.6361586769999992
  0.3873463560000000  5.7224717380000003  7.7228397549999999
  4.4686843080000003  6.9102001709999996  5.5725203329999999
  8.8604957839999994  7.8275385399999999  5.6412527209999999
  8.8272000179999992  8.3543059720000006  8.4799379669999997
  2.3126045490000000  7.3054079190000003  7.2906773080000002
  7.3714546880000000  8.8453034140000000 10.4236791059999998
 -0.0091314850000000  2.8338099670000001  7.5983243189999996
  3.7127504000000000  5.2568853520000003 11.4644969850000003
  1.6365591770000001  4.4658218439999997  0.6066171080000000
  6.2063213939999997  4.2771280379999999 10.3968814649999999
  3.5719575010000000  8.3353629680000001  9.5862774860000002
  4.6647907179999999  3.5671167370000001  8.5255971400000004
  2.2849885020000000  3.0386753359999998  8.5972214279999992
  3.3751476459999998  1.9060671849999999  6.2047528019999998
  8.5023489689999998  6.3712832170000002  3.4809805670000000
  4.4955765269999999  2.1972059879999999  2.7301452280000000
  9.3178379469999992  5.3708138290000003  2.1059477430000002
  5.8634345860000003  7.4722997109999998  5.5208660710000004
  1.1453569250000000  3.7382996749999999  4.6410201239999997
  2.7673838919999998  3.3530605520000001  0.6402038740000000
  5.1139124550000004  0.4178378380000000  0.3352114840000000
  6.5093815140000002  6.1263713299999996  2.8975746120000001
  0.1705268150000000  2.1443731609999999  2.9085301019999998
  5.6857309259999997  3.8225899220000001  5.0350602410000000
  9.4332568989999999  7.3018192170000003  4.3455204439999999
  3.6714340320000001  6.5514050270000004  1.8136835990000000
  6.9807502950000000  3.5693537410000000  1.0493315530000000
  7.6697025339999998  7.7824507059999997  9.2757953220000005
  1.8332998199999999  6.0214622530000002  7.9431097949999998
 -0.6013426010000000  4.9198766389999999 10.8435423300000000
  5.4302258910000001  8.7418501020000008 10.0349099400000004
  9.7670794189999999  8.6767873299999998  6.9451888200000003
  3.3110198190000002  5.6172180049999998  5.5063782600000000
  5.5047148479999999  4.7297733030000000  9.0160156570000005
  0.7842593900000000  2.7773190749999999  8.8841180709999996
  8.6248733200000007  9.6457652819999993 11.4039079799999996
  3.4145966400000001  6.6628642480000000 10.4027820789999996
  7.6830853499999998  5.0416263480000003  6.7081339629999999
  3.4897727480000000  3.3277884489999998  7.2253360950000003
