 O Al  P Al  P Al  P Al 
 1.0000000000000000
     4.9558260000000001    0.0000000000000000    0.0000000000000000
    -2.1935437745774191    9.4599833312735626    0.0000000000000000
    -0.3339489672554502   -3.9609003188482941   15.3190664674385584
  48   2   4   2   6   4   2   4
Cartesian
 -0.4940525060000000  4.1580338360000004 14.8000408280000002
 -0.1074025730000000  1.9210930790000000  7.1857558810000004
  2.5902027099999998 -1.3306735949999999 12.1748420960000008
  2.7108981390000002  5.1711113849999997  9.1831149159999992
  1.0472629179999999  5.8724162829999997  0.2524377180000000
  1.4427377109999999 -2.4055617759999999  9.6933806069999999
  2.2304758790000001  1.9726680100000000  2.5902670300000001
 -2.1583376460000001  5.9997911029999997 11.5229400359999996
  2.0820419069999998  4.4638008899999999  1.9608430530000001
  2.9652122770000000  2.2753526869999998 14.2894782389999992
  1.4956347590000001  3.3987405890000000 12.1746875140000004
  1.5558016240000001  0.0801137670000000 10.4611944700000006
  0.2059250900000000  7.7068739519999996  5.3568818299999998
  2.8590901629999999  2.6811791089999999  9.8102190169999997
  0.4593929880000000  4.8096525840000002 10.4624635349999995
 -0.3631016850000000  4.8167847699999999  2.0800013019999999
  3.9543794220000001 -2.0479638050000002  9.8106631639999993
  4.0624361190000000 -2.4557768030000000 14.2893962040000009
  1.3016314000000000  2.9767038640000001  5.3571556789999999
  0.6028964530000001 -0.5722860920000000 14.8001914740000000
  0.7349999170000000  0.0894284300000000  2.0788821579999999
 -1.5691598830000000  7.0629726870000002  1.3141419910000001
  1.6419779230000000  0.9087564800000000 12.8024807490000008
  1.1345177160000000  6.7029119860000002  2.5911197439999998
 -1.3148221140000000  4.1667323029999999  6.4188347810000002
  0.1427377720000000 -0.9766900460000000 12.2922009019999994
  0.1049829750000000  5.2281101369999998  4.5849555400000002
 -0.9557828750000000  3.7515966660000002 12.2923337380000000
  0.5457669750000000  5.6381450099999997 12.8033782160000005
  1.3887963329999999  3.8052998910000002  7.6967311660000002
  2.6051586680000001  5.5762454239999997  4.7064349029999999
 -1.2096742119999999  6.6493536239999997  7.1864180219999998
  3.5538187560000001  3.3392464920000000  4.0766120580000003
  1.1900379610000000  0.4891484510000000  4.5883647009999997
  1.2364506870000000  6.2972600080000003  7.0685844920000003
  2.3403597829999998  1.5645268180000000  7.0683599399999997
 -0.2200479120000000 -0.5622742770000000  6.4146293349999999
  3.7016077190000001  0.8475118710000000  4.7039530720000000
  3.1789403699999998 -0.2676188090000000  1.9640523360000000
  2.4565362810000000  8.0675621989999993  4.0755484040000001
  2.4848908870000002 -0.9232092629999999  7.6972598980000004
 -1.0622013710000000  1.2711118150000000 11.5199671250000009
  2.0184558760000000  4.5107765559999997 14.9201587419999999
  2.1450607050000001  1.1436087120000000  0.2513875420000000
  0.3501550940000000  2.3257162249999999  9.6931466779999997
  3.1135642870000000 -0.2155095510000000 14.9159803990000004
 -0.4735378530000000  2.3324926530000001  1.3131525790000000
  3.8072599010000001  0.4406494410000000  9.1817223230000007
  2.3790183009999999  8.1831122129999994  2.2693593029999999
  2.5626758600000001 -1.0394918500000001  9.5043733219999993
  2.0409360730000001  0.6901428210000000  1.7111788850000000
 -1.8070936890000000  3.5621204220000000 15.1606796710000005
  1.4588893860000001 -0.3733256640000000 11.9268542699999998
 -0.7058740270000000 -1.1727073740000000 15.1638247919999998
  3.7301697030000001  0.5557822440000000  7.3756621950000003
  2.6332385899999999  5.2861411860000000  7.3753835920000004
  0.3628314830000000  4.3582029240000004 11.9252353519999996
 -1.2289652460000000  4.6175052440000002  4.9530156820000002
  1.1973893170000001  2.5239044850000001  6.8166660480000001
 -0.9611621250000000  1.7232685230000000 10.0641478860000007
 -2.0535356419999999  6.4542138539999998 10.0607354709999992
  0.1103168650000000  7.2532426970000001  6.8183816879999997
  2.3078576169999998  1.8587310220000000  4.3972827490000004
  3.9843057360000000 -2.3411765280000001 12.4825487099999997
  2.8877912829999999  2.3889001900000002 12.4822134859999991
  1.4653968740000001  3.6909089320000001  9.5040263730000003
 -0.1150688220000000 -0.1067428410000000  4.9541372380000004
  0.9483129850000001  5.4201402969999997  1.7088520149999999
  0.6235316700000000  5.5244418560000002 14.6098578020000005
  3.4756330510000000  3.4528788320000001  2.2695140629999999
  1.2112107180000000  6.5868745180000001  4.3985509110000001
  1.7195908080000000  0.7931486330000000 14.6101003970000001
