 O Al  P Al  P Al  P Al 
 1.0000000000000000
     8.6965400000000006    0.0000000000000000    0.0000000000000000
     4.2248489534668474    7.6025254107060425    0.0000000000000000
    -0.4827135889240874   -0.3224828022946690   10.5682767085733147
  48   2   4   2   6   4   2   4
Cartesian
  7.3626323039999999  7.3543246800000004  2.1273528470000000
  9.4083108469999992  3.4868648389999999  1.7348919450000000
  5.0814418950000002  6.2665955520000001  3.0383614770000000
  7.3306533299999996  2.5095450470000000  2.9580469420000002
  6.8553162749999998  4.8715221250000003  4.1529444800000004
  9.0674510749999992  1.1491294400000001  4.2062756869999998
  2.6768407760000001 -0.0723827740000000  4.7386774970000003
  9.2424374920000005  3.7343936910000002  4.6238780330000004
  0.8172101930000000  0.9306726590000000  1.7840922800000001
  7.2286704039999998  4.8620253760000001  1.5303901670000000
  2.6155906029999998  2.3282009440000002  0.7545283180000000
  9.1883337120000004  6.2473622459999998  0.8418543490000000
  6.8395756949999997  0.3879121440000000  1.0360270690000000
 10.6678574640000008  4.5839169660000003 10.2073859519999992
  2.8217549730000000  1.9187297219999999  3.4519772650000000
  9.2778283649999995  5.6844049830000003  3.3058087180000002
  4.7482942789999996  1.3560905889999999  5.0145946109999997
 11.1785335620000001  5.3918289770000003  4.9522962870000002
  4.5592854569999997  3.8763701469999998  3.6489567560000000
  6.8202502740000002  0.1245108930000000  3.6710979629999998
  4.3531224169999998  6.3917996580000001  0.3907395720000000
  4.2492075070000004  0.7135015970000000 10.2723114480000000
  4.4522813729999999  4.0092925959999999  0.9268515320000000
  6.5339344500000003  2.7074373729999999  0.1501482850000000
  6.6325900109999996  6.7615710350000002  7.3776949549999999
  9.1729013510000001  3.1160145390000000  7.3556921250000000
  4.4832321070000001  6.9416975079999998  8.7529511459999991
  6.8902857920000002  2.2084911439999999  7.9386092699999997
  6.5161923330000002  6.0589687039999998 10.3030791110000006
  8.5281122020000009  1.6173392120000001 10.2808645690000002
  1.8007298830000000  1.1703291950000001  8.6168120899999998
  7.8645625980000000  4.0158256960000003  9.3370566799999999
  0.4118438070000000  0.4154162190000000  6.6061524379999996
  7.1457104549999997  4.3993694290000001  6.8540900970000003
  2.4352261880000001  2.1384309330000000  5.9014846439999999
  8.8216890310000000  6.0019979389999998  5.6977886839999998
  5.2879622839999998  4.4372991959999997  8.8268721580000005
  6.4472275979999996 -0.1598374720000000  9.2027234720000006
  3.3586865050000001  3.0593030190000001  8.7304061449999999
  9.1493480989999991  5.9457599160000001  8.1882867810000004
  5.0897651819999998  1.6781828590000001  2.0295213599999999
 11.4729270109999995  5.3750301309999999  2.0463772339999999
  3.2951283180000002  5.1137170469999997  7.4551416049999997
  4.6885630989999996  0.8056464700000000  7.6441016629999998
  4.7731056040000004  3.3111062769999999  6.6454253860000003
 10.7988818589999997  7.3405273900000001  6.6989438449999996
  5.0485305379999996  5.6850017849999999  5.4274257580000000
  7.2465221590000004  1.9850099480000001  5.3904578939999999
  1.6872133620000000  0.2516866360000000  3.1587976119999999
  8.1700157470000008  4.0839539020000002  2.9657432090000002
  5.3192688790000000  5.1197527970000003  3.9915826040000000
  7.5358508210000004  1.4154552170000001  3.9762573639999998
  9.7545840920000000  2.2065785849999999  1.0126086620000001
  7.6262601490000002  6.3277940629999998  1.0947775420000001
  3.8680561359999999  2.8968650490000001  2.3181820439999998
 10.4173015899999992  6.7607607019999998  2.3084689169999999
  3.2595546889999998  1.3846619090000001  4.8846186210000004
  9.6984519010000003  5.2292438719999996  4.7660430290000004
  3.5058048030000002  5.2025381020000001  0.7156646690000000
  5.8155314819999999  1.5025613190000000  0.6965374760000000
  1.2652517520000000 -0.0018949680000000  7.8634930589999996
  7.7603829800000002  3.4436009529999998  7.8252281710000000
  7.9419876709999997 -0.0677501070000000 10.0749949670000003
  6.1588729850000004  4.0951572740000000 10.2669950690000000
  7.0339881420000001  5.8865546719999999  5.8996516710000000
  9.3231902330000000  2.1534916009999998  5.8449400650000003
  4.1935462709999998  3.9688489819999999  7.8814724140000001
  9.8680739899999992  7.2671272089999999  7.9334193600000003
  2.9692461419999998  1.7453760199999999  9.6931385660000000
  9.1307616899999999  5.2405012140000000  9.7569962360000009
  5.7422172539999998  1.8210052310000000  6.5088531910000000
  3.4816698349999999  6.3067809520000004  6.1906775900000000
