 O Al  P Al  P Al  P Al 
 1.0000000000000000
     8.8934259999999998    0.0000000000000000    0.0000000000000000
    -0.2487373353014654    5.7476923347732463    0.0000000000000000
     3.5058304042901427   -0.9015537462158771   13.2399177508153318
  48   2   4   2   6   4   2   4
Cartesian
  1.6947425000000000  4.1108357040000003  1.9312559869999999
  6.3105085230000002  1.1226456950000001  1.9673343240000001
  7.5637071020000004  0.8503139250000000  4.7623685160000004
  5.7823019440000003  4.9765584709999997  4.1584353450000000
  8.9823625259999993  0.4073315220000000  6.5966626289999999
  3.6055495220000000  3.8447955230000002  4.1360341370000002
  9.8255459609999996  2.2942903509999999  4.3203411550000004
  4.8190607520000004  3.3981954559999998  6.1557779860000004
  8.4935635769999998  0.1485303710000000  2.5500169119999998
  3.9963993480000002  2.4562724800000000  2.1562479890000001
 11.1881361920000000  3.2158143049999999 13.1462397989999999
  3.7257759760000000  1.0962360739999999  0.0988465520000000
  1.8419360190000000  1.2208179330000000  1.5699544270000001
  6.0651759199999997  4.1698145269999998  1.7645869610000000
  8.7078444620000006  4.4648504869999996  4.3106235000000002
  4.3926974420000002  1.2147363470000001  4.7702725560000001
  8.2729895280000001  2.9654961460000000  6.1277289799999997
  3.8143151959999999 -0.2241202320000000  6.6239087000000003
  1.5792938350000001  4.0548883670000002  6.0977383810000001
  6.0831647999999996  2.7606501990000001  4.0207691160000003
  8.2146452930000002  2.6810958280000001  2.3246615450000001
  4.0410988390000000  0.0730661570000000  2.3600465300000000
  8.1695438500000002  1.1634057980000001  0.2894737900000000
  3.2324234500000002  4.0529946209999999  0.0455344120000000
  7.1340203160000000  4.8117037160000002 11.1555199340000009
 11.6635465140000001  1.6015527949999999 11.0161395370000008
  4.2818765680000004  4.2542558399999999  8.4373434679999999
  8.7778310279999996  1.8983333780000000  8.5797101950000005
  4.5127655200000003  2.0377306900000001 12.9894836560000009
  8.9609579460000006  4.3800516690000002 12.8456391579999991
  5.1428373519999999  0.3053853420000000 11.3144848780000000
  9.2471310839999994  3.2391634290000000 10.5919066250000000
  6.4208581669999996  0.1771466500000000  9.1690157049999996
 10.9072712920000008  3.2523298010000001  8.6454146580000000
  6.5694681859999999  4.9549282100000003  6.7477190199999999
  2.6415000370000001  1.8811464670000000  6.4610120569999996
  7.3337926839999996  1.4762393780000000 11.1326590109999994
 11.5511393550000001  4.8019780729999999 11.0269626049999996
  4.4053833840000003  1.7808426650000000  8.5431459689999993
  8.6446286430000008  4.3331182589999999  8.4321835210000007
  4.4979127270000001  4.3020997169999999 12.9714611550000001
  9.0433276060000001  1.9817985210000000 12.8731442030000007
  4.7684801759999997  3.1873202720000000 10.6693580780000001
  9.6192250369999996  0.2627590640000000 10.7380195100000009
  6.4579947390000001  3.1569984889999998  8.9729180609999997
 11.1468632319999994  0.2727166170000000  8.9068915590000000
  6.5135380050000000  1.5031231819999999  6.9506115970000000
  2.1864254320000001  0.2061618380000000  4.5941243079999996
  3.3985563669999999  4.0872245490000001  2.4182252530000001
  5.6611604179999997  0.9513566200000000  3.6158504350000000
  7.4834994320000003  0.5222769920000000  6.2566394030000003
  5.0108783069999996  3.6997321310000002  4.6944083770000002
  7.8059307799999997  1.3333976380000001  1.7456396820000000
  1.7457257950000000  4.0762761440000004  0.4103598200000000
  9.3778061009999991  0.5565133960000000  4.1645574840000004
  7.3164386160000001  4.0590488950000001  3.0853250270000001
  9.4169622180000001  3.4064521320000001  5.2502096429999998
  3.1906687640000002  0.7869723749999999  5.5801976599999996
  6.2431099640000003  4.1171368719999997  0.2580482040000000
  3.3631987759999999  1.2232443940000000  1.5491672230000000
  6.4860054199999997  0.2463180620000000 10.6689114309999997
  9.4857352899999992  3.1611228800000002  9.1127383959999992
  4.5360119799999996  0.2911812770000000 13.0499531560000008
  8.6312485989999992  0.2948578020000000 12.2268861350000009
  9.5015991490000005  0.2975889760000000  8.3112878139999999
  7.1989030260000000  3.3450248500000002  7.4181249429999996
  4.9589152340000000  3.0498588910000000  9.1890455469999992
 11.1457387059999995  0.2959604620000000 10.4692824190000007
  3.2983474259999999  3.2080218870000001 11.6765773870000000
  7.7887961280000004  3.1691602059999999 11.7158610870000004
  3.0485011590000002  3.5743125450000002  7.0627630170000000
  5.1433047250000001  0.2411596130000000  7.9005198239999999
