 O Al  P Al  P Al  P Al 
 1.0000000000000000
     9.0587000000000000    0.0000000000000000    0.0000000000000000
    -0.0933611473539337    6.3535831009380654    0.0000000000000000
    -1.5082289092318437    0.5925732214089312   12.2464930334880098
  48   2   4   2   6   4   2   4
Cartesian
  6.0113507979999996  1.4444359830000000  1.9733606960000001
  2.9339480830000002  5.6424689880000001  1.9573049910000000
  0.3338377820000000  2.3237329799999999  4.1652018750000002
  1.8495854160000000  4.3198005239999997  3.9282548560000001
 -0.0898407750000000  0.7634638730000000  6.0515094940000003
  2.3768122080000000  5.4051713479999997  6.1394289110000004
 -0.0192735880000000  6.2227293010000002  3.8056719299999999
  4.0530212939999997  1.0656846650000000  5.8826895869999998
  2.8921933080000000  3.0422711890000000  1.9056076580000001
  7.3419282419999998  5.6916522030000003  1.9338210530000000
  1.2721607479999999  1.7577241020000001 12.1406489040000007
  6.3092602570000000  4.8349087350000000 12.2294602720000007
  7.6383046779999999  3.2379831349999999  2.2762287890000001
  1.1470083380000000  1.1398660110000001  1.8309025170000000
  6.6371579310000000  4.0885526319999999  4.5703734989999996
  4.7258594479999996  6.2587990199999997  3.7961789430000001
  7.0738691039999999  4.2547931950000004  7.1498290329999996
  2.5775724869999999  1.0625461820000000  3.8764934109999998
  7.1420784849999999  1.3798313730000000  4.3205812850000003
  4.6508063770000003  2.4162911110000000  3.8746348369999999
  5.0235219490000000  4.3414676329999997  2.0436146669999999
  0.5401995260000000  4.6052170170000002  1.7563774720000001
  1.9358788039999999  4.9761924139999998 12.2300059700000006
  3.6373890520000001  3.2305751539999998 12.2392824230000006
 -0.1069738890000000  2.5534183459999999  7.9332405230000003
  4.5662147659999999  1.6926392180000001  8.4758861589999999
  3.3280517860000001  5.4537140969999998 10.2460252989999994
  0.8177339440000000  6.2513952819999998 10.2879023729999997
  5.8192750940000000  2.1461194250000002 11.9602915870000004
 -0.7990106750000000  3.1369355120000000 12.0708072620000006
  5.6042299880000002  6.4548039599999996 10.1869157720000008
  2.8345957570000002  1.8200976820000001 10.2837650860000007
  5.3657233289999997  3.9744616680000000  9.8952217279999992
  2.1930986030000001  1.0922972179999999  8.0052769179999999
  6.2085676699999999  6.0591026460000004  6.0364335330000003
  2.0458807360000000  3.0164550810000001  6.0130451190000000
  7.7553624950000000  6.6994519720000003  8.4424242629999995
  2.8788432319999999  3.4779542459999999  8.4554235529999993
  4.5434282000000001  5.5787113950000000  8.1116001729999994
 -1.1719252849999999  4.8566697530000003 10.1028951740000004
  5.2578680960000002  0.0944818060000000  0.2476058340000000
 -0.9587094870000000  0.6224208080000000 11.9338782410000004
  7.3035357420000002  2.1655186450000001  9.7722096749999992
  0.9908416810000000  3.6723413850000002 10.1671584740000007
  6.5934327489999998  1.9613417449999999  7.2014971299999999
  0.5413527710000000  5.0399610819999996  8.1689929249999995
  4.7601701900000002  3.8939977799999999  6.1353650359999996
  0.0517407550000000  4.5253647109999999  5.7158766360000000
  6.3498745919999999  2.7427900649999999  3.3782902710000000
  1.3695721830000001  5.8500867320000003  2.7768746420000001
 -0.4641303700000000  1.0760649579999999  4.5039862160000004
  1.5033068740000000  4.3587520270000004  5.4351402530000001
  3.5731841179999999  4.3362095939999996  1.5355535870000001
  6.0039543889999996  1.4737828820000001  0.4083407060000000
  5.6645248900000000  6.0039380160000002  2.3112269319999998
  1.7029069320000001  2.5117646080000000  3.0712654449999999
  6.1431557940000001  4.5110377090000000  5.9396201260000003
  4.0670996920000002  1.1064334119999999  4.3638104699999998
  1.2579758480000001  1.2283843249999999  0.2761621300000000
  8.0970684599999991  4.4409001779999997  1.4713753759999999
  4.7304025860000003  5.3279151730000001  9.6953067599999994
  3.1469190149999999  2.0096989089999999  8.7801004830000000
  2.3199681060000001  6.5916732720000004 11.2552184149999999
  2.1173162649999999  3.2450745259999998 11.3956623159999992
  1.0970253830000001  1.8364719199999999  6.8902904009999997
  5.2767985550000001  0.7705929700000000  7.1009748920000000
  7.6371415259999997  1.9036346230000001  8.2754077840000004
  0.3509490060000000  4.9344625740000003  9.6664745389999993
  6.7465150270000001  3.5067093890000001 11.0570373719999999
  7.3260876950000000  6.6113631179999999 10.3559883859999999
 -0.7388810120000000  5.5185335340000004  7.0388159170000000
  3.4819642000000002  4.4614090290000004  7.1563736909999998
