 O Al  P Al  P Al  P Al 
 1.0000000000000000
     8.7738230000000001    0.0000000000000000    0.0000000000000000
    -4.1181141085410919    7.5992158962723790    0.0000000000000000
     1.5702525766857927    0.8609544493221726   10.3157438676251054
  48   2   4   2   6   4   2   4
Cartesian
  5.7776153170000004  5.1148389239999998  0.9460495520000000
  3.2657844389999999  1.3066391550000001  1.3740694810000000
  5.7834543270000003  5.6015920780000004  3.6316977220000002
  2.4003148859999999  3.0255436940000000  3.0260976220000000
  4.1913128400000002  4.9035562439999998  5.4417705319999996
  0.2643987290000000  2.2563916200000000  3.8974846470000002
 -0.6275639040000000  5.5407547470000003  3.9070755560000001
  4.6090570199999998  2.0268729450000000  4.2849664430000001
  1.1744114240000001  0.3365501140000000  2.2765058599999999
  7.1073062179999997  3.8976523580000002  9.9149061090000004
 -1.1219544889999999  6.4758182660000001  1.2286270200000000
  3.5461212170000000  4.2855861859999997  0.3619727520000000
  1.2251660190000000  3.4565970840000002  0.8330124310000000
  5.6408953369999999  0.6552617640000000  0.5692035870000000
  1.6809717870000001  5.5539361400000002  4.5371413179999998
  6.6934697510000003  1.6654875860000000  3.1534950390000001
  0.1957741640000000  7.2423303739999998  5.5827352760000002
  6.4851776909999996  1.0954616450000001  5.5804424440000000
  3.5305026590000002  5.1641541740000001  2.9862716329999999
  2.2653718440000001  3.0275822010000000  5.4819076910000000
  3.4727302729999998  7.3614110039999998  1.9430032740000001
 -0.5169855230000000  1.8409225000000000  0.6342208870000000
  4.9805799139999998  7.7658394680000002  9.8999969449999998
  0.6947704490000000  5.0275855470000002  9.9238744519999997
  6.7977394999999996  5.7777566489999996  6.2783096389999997
  4.4955750759999997  2.5014511480000001  6.7941723370000000
  5.0286775879999999  7.0353374679999998  7.3841808300000000
  2.7718031870000002  3.0113490800000000  8.5941196519999998
  4.9586191519999998  3.0899722340000002  2.0372537359999998
  3.0720660959999999  0.9047591070000000 10.1441835149999999
  6.8629361849999997  6.3225791300000003  8.7342667580000004
  5.1597479410000000  2.3030708049999999  9.1899755499999998
  2.5724609410000001  0.6444790840000000  7.1814351470000002
  4.8056223520000003  4.4893179339999998  8.0152819560000008
  0.7668925650000000  7.3822124660000004  3.1152661469999998
  6.5426386530000000  3.5036731400000001  4.9094796020000002
  2.5181611359999998  6.3703825869999999  6.8131978459999996
  8.8375837219999998  1.8428059219999999  6.3238781189999997
  0.7331420950000000  7.1071173229999998  8.5345413269999995
  7.1250772780000000  3.3414728920000001  7.4198516139999997
 -0.9612218300000001  3.7884951500000001  2.0476841220000002
  1.6799586520000001  5.8752349309999996  1.2372780919999999
  3.0279155990000000  6.0821806550000002  9.1558456820000007
  8.9183714910000003  2.4655584250000002  8.6479543299999992
  6.9857499709999997  0.7373198640000000  8.1119305060000002
  0.6631253810000000  4.3074114930000000  6.9284380980000000
  4.1595245050000003  7.2059094779999997  4.5160864450000000
  2.3108663290000000  0.9184291010000000  4.4619702080000003
 -1.6858764820000001  5.2831974779999999  2.5516201289999998
  4.7859943229999997  1.3615085250000001  2.3685102450000000
  4.3760613279999996  5.6849665739999997  4.0838289090000002
  1.7570991940000000  2.3161863889999998  4.1740977170000004
  2.2233631219999999  0.2470714050000000  1.2239568750000001
  4.9856213850000000  3.8141444430000000  0.7397193100000000
  2.3588748590000002  4.3481931549999997  1.8783363390000001
  8.3720385929999992  0.8763273150000001  2.9978999669999999
  0.4785524530000000  6.4703480490000000  4.2993217570000004
  6.1465427669999997  2.1024231480000002  4.5237098400000004
  2.5000940610000000  7.0792711580000001  0.8670042290000000
 -0.2773134050000000  3.3708371320000001  0.7605197410000000
 -2.1742960500000001  6.8736860530000001  7.2881524080000002
  4.2451741340000000  3.0143075950000000  8.2374418580000004
  4.8151527649999997  6.0604407370000004  9.0804478599999996
  1.6310432840000000  1.8497241639999999  9.4919044770000003
  5.8178304509999998  4.2468163260000003  6.3542720959999999
  3.5747195100000000  1.2722753350000000  5.7253929179999998
  2.1957489130000001  6.9364700260000003  8.2368242089999999
 -0.1271506850000000  3.0490028790000001  7.2110849640000003
 -0.3399433310000000  6.5324479809999998  9.8512574980000007
  6.9789500259999997  2.2969062660000001  9.1541611029999999
  2.1862696680000000  4.7492391349999998  5.9910787360000004
  3.7659546620000000  7.8967839059999996  6.2822069070000000
