 O Al  P Al  P Al  P Al 
 1.0000000000000000
     9.1847999999999992    0.0000000000000000    0.0000000000000000
     0.0005572928678472    5.8868969736214734    0.0000000000000000
     2.9459840299297131   -0.0026838723907379   12.8567606664197136
  48   2   4   2   6   4   2   4
Cartesian
  7.0956382329999999  3.7087715210000001 12.8116436480000004
  0.8879273890000000  1.8023906830000000  2.5270277559999998
  2.6019732069999999  2.8463355159999999  4.5257892279999998
  6.0311055990000000  0.9973712060000000  6.5654062209999999
  3.7302654259999999  2.7295268880000001  6.7085767079999998
  8.3242791989999994  2.0348479629999998  6.7094340499999996
  4.5702758010000002  4.4386731880000001  4.4422998250000001
  7.1926847110000001  1.9157782180000000  4.5287071520000000
  3.1789011370000000  1.7670377140000000  1.9004179910000001
  7.7732279030000004  3.0099799020000000  1.8901733900000000
  1.8343927719999999  0.0041883330000000  0.5090816050000000
  5.4843422159999999  2.9605319290000001  2.5300451050000001
  7.0279718769999997  0.8276140170000000  2.3429093710000002
  9.0034126870000009  5.1657577249999997  1.6740600280000000
  2.5520761959999998  5.8688924550000001  3.8789788829999998
  7.1436214690000002  4.7866342690000003  3.8736888980000002
  3.7643576209999998  5.7398868140000001  6.1804579110000004
  9.2367246279999993  3.5689088739999999  4.2220108730000003
  4.6501615870000004  1.1900391669999999  4.2248503220000000
  9.1630042150000008  0.3219909980000000  4.4405872759999996
  2.4126882549999999  3.9492098400000000  2.3453294389999999
  5.9832664180000004  1.8940770190000000  0.3592271380000000
  1.3928260880000001  2.8698681050000001  0.3579950860000000
  6.4218188950000004  4.7742087340000001  0.5140984110000000
  2.8124233080000001  0.9911728580000000  8.3734429840000004
  7.4070516430000000  3.7758874310000001  8.3734395660000001
  8.3592789159999992  2.0097427899999998 10.7061907800000000
  3.7663003179999999  2.7571981630000000 10.7025867819999991
  7.6151882669999997  0.1416085210000000 12.0913234589999998
 11.6888463300000005  1.0558988949999999 12.8044099100000004
 10.5299693980000004  2.9302646320000001 11.3652906550000008
  5.7759211190000004  4.3101305820000002 10.2453172329999997
  9.8081630569999998  2.8233241400000000  8.8981301649999995
  5.2222182860000004  5.0652967210000002  8.0126437569999993
  1.6856458150000000  1.3280053050000000  6.1815590640000000
  8.3552980659999996  4.9102353990000003  6.1783730600000002
  2.6566069170000000  4.5646204319999999  9.2029251359999993
  7.2496861380000004  0.2030084070000000  9.2023168480000006
  8.7400919679999998  4.3713858759999997 10.5856966079999992
  4.1501061269999999  0.3957820320000000 10.5817518320000001
  4.4034872800000002  5.4917543830000000  1.6804992590000001
  3.0309752259999998  4.6243116530000004 12.0874547579999998
 10.3645018929999999  0.4572547250000000 10.2437638119999992
  5.9386950839999999  1.8397783710000000 11.3605739149999998
  9.8149010449999992  5.5861643770000002  8.0099481879999992
  5.2148430599999998  1.9458935540000000  8.8946691920000003
 10.6228179770000004  3.7678833530000002  6.5607188990000003
  6.2784230860000001  3.4366865770000001  6.1829127530000001
  4.0078455039999996  2.7732838950000001  3.4537612680000001
  8.5938833359999993  1.9816506350000000  3.4498075450000001
  2.2950293469999998  2.6815882869999998  5.9805992669999997
  6.8880701069999999  2.0827112020000000  5.9835201930000004
  1.8843471130000000  2.6511332880000000  1.7458759140000000
  4.9142108689999997  4.9580894830000002  0.3440787530000000
  7.2816911360000001  4.9001318960000004  2.0714938530000002
  2.6802231650000001  5.7581641000000001  2.0758167169999999
  3.8765853940000001  5.8329245920000004  4.5989930289999998
  8.4670397560000001  4.8151782499999998  4.5971842450000002
  0.3279338970000000  5.7021768010000002  0.3381054420000000
  6.4824640560000004  2.1214911029999999  1.7424825760000000
  9.4556753570000005  3.0681187799999998 10.3550347780000003
  6.4733621589999997  4.7920001210000001  8.9782334739999996
  2.8110299830000001  2.7192310950000000 12.2641729490000007
  7.4005599960000001  2.0473430270000001 12.2660590159999998
  4.7735920419999998  4.2075571700000003  6.4436210510000000
  9.0419609259999998  3.7209011840000001  7.5437040089999998
 11.0638062819999998  5.8617317450000002  8.9776641920000007
  4.8637019849999996  1.7000642829999999 10.3517087900000000
  3.9790082290000002  4.5485669209999999 10.4413791770000000
  8.5682906810000006  0.2184523250000000 10.4449301929999994
  4.4475358399999996  1.0445927129999999  7.5435903389999996
  9.3659365319999992  0.5553906980000000  6.4396398680000004
