 O Al  P Al  P Al  P Al 
 1.0000000000000000
     9.1477509999999995    0.0000000000000000    0.0000000000000000
     0.0138643272240377    5.7236332082804386    0.0000000000000000
    -4.2775471808685985   -2.8512275425700144   12.6858728322680747
  48   2   4   2   6   4   2   4
Cartesian
  2.5985582439999999  1.9248627130000000  1.9051759859999999
  7.0561393619999997  4.5296817110000003  2.0197817370000002
  4.2822200150000000  1.5978569320000000  4.2763986159999998
 -0.3885448860000000  4.5606305940000000  4.2226214899999999
  5.8809199430000003  1.7727945679999999  6.2215900599999996
  0.9930949190000000 -1.0556011190000001  6.3291023500000003
  6.2534943739999997  3.0129258330000002  4.1683055119999999
  1.8046409910000001  0.5147981630000000  4.0272320700000002
 -3.4753846540000000  1.8682634730000001 12.2701043579999993
  4.7434266220000003  0.3751773530000000  1.9148661690000000
 -3.9333368879999999 -0.9721532140000000 12.6833435720000001
  1.2018859090000000  1.9517767779999999 12.6673870290000004
  2.4743112009999999  4.5953057609999997  2.1133330170000000
  0.2492856710000000  3.2141133650000002  2.0901145040000002
  4.0840199889999997 -0.8240634250000000  4.3304767960000001
 -0.3034268910000000  1.9604981340000001  4.2473810680000001
  5.5672889860000003 -0.9865563160000000  6.4135769839999996
  1.3429777000000001  1.8132407790000000  6.1489953589999997
  6.5026696220000000  0.4123655510000000  4.1321083339999998
  1.9603957299999999  3.0638048460000000  4.1133031830000002
  0.3697810810000000  0.4918290100000000  1.9596348139999999
  4.4866627560000003  3.3437935080000001  2.2533095109999999
  3.3473033129999998 -2.6395296909999999 12.6745479700000008
  1.0029394240000000 -1.0779148599999999 12.6362263509999995
  4.9606765660000001  3.0989697930000002  8.3058057269999992
  0.3780440860000000  0.5813088320000001  8.3266281860000007
  1.9348925790000000  3.3592173260000000 10.4235124670000001
 -2.7320103640000002  0.2580438320000000 10.5874592849999996
 -0.9811891700000001 -2.5649220210000001 12.5382325290000001
  3.2557064929999999  0.6154608060000000 12.4772873240000006
  2.5327815000000000 -1.0496820069999999  8.3760359950000005
 -0.4448447660000000  1.6673186369999999 10.3986625890000006
  4.0513492710000003 -1.0182050530000000 10.4693402669999998
 -1.7905461540000001  1.8435695050000001  8.3060100259999992
  3.3513034990000001  0.2846591310000000  6.3694626330000004
 -1.2194300090000001  3.4536559030000000  6.2872021140000003
  4.9851137000000003  0.6034197720000000  8.3581131539999998
  0.3928269370000000  3.0598854090000001  8.3592589630000003
  4.1839738600000000  1.8583639810000001 10.3141246439999996
 -2.7000197469999998 -2.2722887489999999 10.5716687870000001
 -1.0360041929999999  0.5912105090000001 12.6400025530000004
  7.4797099700000000  1.8815252549999999  1.8971449229999999
  1.8707511429999999  0.1977313570000000 10.4052220529999992
 -0.5787041530000000 -0.9570265550000000 10.4467446610000003
  2.7885669439999998  1.8587797660000001  8.2116671570000008
 -2.1504075340000002 -1.0258970180000000  8.4960873190000008
  3.4327620909999998  3.4874007740000001  6.1434553589999998
 -1.1651364270000000  0.1968161800000000  6.2860644219999999
  3.7804645660000000  3.2309844390000002  3.9343182479999999
  0.8493926290000000  4.8087659750000000  2.8910683650000002
  5.8735575820000001  1.6018726290000000  4.6481404120000001
 -0.5007455800000000 -1.0525836200000001  5.8016339009999998
  7.0221999869999996  4.6715059549999998  0.5252609890000000
  4.6782874569999997  0.4727341060000000  0.4084284580000000
  7.6899227449999996  3.2220158720000001  3.1462097959999999
  3.4075724730000001  0.4795623380000000  3.0245110749999999
  4.1124229589999999 -0.8947699300000000  5.9102379459999996
  1.1339408970000000  1.8380250640000000  4.5942176110000004
 -0.2123790080000000  1.7997210470000000  1.4726317060000000
  3.1799768749999999  3.2696860150000000  1.4902570410000000
  2.5292608049999998 -1.1153892679999999  9.9820865980000004
 -0.3000949360000000  1.8215596329999999  8.8383076460000005
  4.7227986880000001 -2.4656336350000001 11.5412228270000004
  4.7684641379999997  0.4630017420000000 11.5230863350000003
  6.4666478730000003  3.2510551720000000  7.3148935650000002
  1.8556764990000001  0.3937885830000000  7.3582940839999997
  4.2566185780000003  1.8504648390000000  8.7658474460000004
 -2.0115252870000000 -0.9861119590000000 10.0485259469999999
 -1.8827168990000001  1.9883419520000001 11.5526787720000002
  0.4464442870000000  0.1559568710000000 11.4391849820000004
  6.5058910630000000  0.4104707590000000  7.3515667730000001
  1.8901409130000000  3.2559770160000001  7.3131398770000002
