 O Al  P Al  P Al  P Al 
 1.0000000000000000
    10.7277030000000000    0.0000000000000000    0.0000000000000000
     0.5076503273289359    7.5497709186387780    0.0000000000000000
    -0.8646227747259162    1.0727368362738752    8.5785764215155407
  48   2   4   2   6   4   2   4
Cartesian
  5.4147106070000000  3.8773545500000002  7.3692119710000004
 10.0905894489999994  6.1908008710000004  0.9178999110000000
  2.0171644440000001  6.2408204610000002  7.3214744260000000
 10.2954384179999998  3.3601990410000000  0.6776712700000000
 10.2768894670000002  6.4126498730000003  7.4417473159999998
  0.0124539350000000  1.1151494230000001  0.6988297730000000
  4.0487521449999999  0.8448853540000000  5.0107990210000004
  8.2812580709999999  1.8148150580000000  0.7370183820000000
  4.4137634150000000  6.7096799100000002  0.5288800150000000
  3.1133121020000001  4.3068046219999996  8.1443710229999997
  2.5853317589999998  1.2648896839999999  0.6731163080000000
  8.5475872979999998  5.7382182119999996  4.9839642419999999
  3.5894136630000002  3.6944965829999998  5.6898415560000002
  0.6596187390000000  6.9560561940000003  2.9688867100000000
  4.5342770720000001  6.8837732190000001  6.9708498759999999
  7.4116037260000001  2.4687235820000000  3.2007769570000000
  3.8982620880000001  5.9024961720000002  4.6370828099999999
  5.0621854229999999  2.9429024629999998  3.7662734890000000
  6.0781055979999996  6.3596675070000002  5.1119113850000000
  9.8624024049999992  2.1350599680000002  2.7768203819999999
  8.9112355660000002  7.1760104990000002  2.9034381480000002
  9.2930769269999995  3.4010624960000002  5.0554882550000002
  3.2438439770000000  7.3166832810000004  2.6876723810000001
  6.8330633230000002  3.9193130040000002  5.2157837049999998
  0.4502902260000000  1.3746699950000001  7.0786917000000003
  8.0755181040000004  4.4483165700000002  0.9961027220000001
  5.9852971779999997  1.3890002880000001  7.0504945289999998
  2.7682817329999998  2.4719543659999998  2.9370874250000001
  3.5928892490000002  2.0464937150000000  7.4523622569999999
  1.9963149650000001  6.5217321479999999  0.7053713510000000
  2.1415646890000000  7.7727075140000004  5.1393985710000001
  3.8797533309999999  4.6316713729999996  1.9717278430000000
  1.1767486350000000  2.5900074069999999  4.9602761810000002
  1.7999079440000001  3.8087002929999998  1.0926081050000001
  9.9930824749999996  0.8683466090000000  4.9814404029999997
  5.7075436469999996  2.1977767990000001  1.4305214939999999
  0.5146000150000000  4.1128852210000000  7.1962972890000003
  6.6283499800000003  5.4001426480000001  2.9018480719999999
  7.4949765709999996  0.7743532650000000  5.1898085820000004
  1.8832534949999999  4.6611960809999999  3.4632456600000001
  8.2997816709999999  4.4284562029999996  7.1461273739999998
 10.0348489440000002  4.8572839480000001  2.9982315399999999
  7.6616814959999999  6.8446673400000000  7.2817828660000004
  7.0082581270000004  6.8170826240000002  0.8453877970000000
  8.5462953380000002  1.3534594080000000  7.3344522660000004
  5.8615365920000002  4.6172037650000002  0.5889640530000000
  0.7022230010000000  5.5603630490000002  5.3072022600000004
  5.8433802999999997  0.5151585170000000  3.2224391130000001
  2.1449523739999998  6.4790736640000004  3.8735026000000001
  7.5003421469999996  6.9117785480000000  4.0650958450000001
  0.7444265400000000  5.5876270390000000  6.8671261189999999
  9.6680506340000001  2.0931830410000001  1.2717417529999999
  3.1560859770000000  7.3980971269999998  1.1750932150000000
  3.9324349860000001  3.5009317759999998  7.1989302640000004
  1.3024957020000001  2.3582489670000002  0.2206349700000000
  6.9471899410000004  2.9615385630000000  0.4052997670000000
  4.6995262489999998  6.9700833549999999  5.4507286500000003
  5.9891478569999999  1.9803288640000001  2.9197906179999999
 10.1129419049999996  6.2971933880000002  2.4942230340000000
  8.1950142419999992  4.4183595850000001  5.6379143940000001
  0.5987678440000000  1.2323642730000000  5.5778724759999996
  2.6298084859999999  3.8622205560000000  2.3485966480000000
 -0.2751228110000000  8.1595780340000008  8.2664028359999993
  0.2084326180000000  4.0914670319999997  4.3463672979999997
  4.0660698139999996  4.9188151400000004  0.1473288300000000
  8.6759107419999992  5.8055693880000003  8.3258783770000004
  7.8043132499999999  8.2662320160000000  6.7662440320000004
  6.9061256569999996  5.4150834860000003  1.3769356950000000
  5.0780371349999998  8.2896020900000007  8.0131867809999999
  5.5150663590000004  4.6689396629999997  4.2861562140000000
  3.2156802110000000  2.3149195749999998  4.6241697789999998
  8.7471168959999996  1.8041640450000000  4.1707365010000004
