 O Al  P Al  P Al  P Al 
 1.0000000000000000
    10.9686070000000004    0.0000000000000000    0.0000000000000000
    -1.0173098026944745    7.2043353799355243    0.0000000000000000
    -0.8852089094895648    0.5912224911385864    8.4739011914543916
  48   2   4   2   6   4   2   4
Cartesian
  2.2655274969999999  3.4182251140000002  7.2376642179999999
  8.9220118440000000  5.5857581160000001  0.9189438350000000
 -0.3857386710000000  3.5005439580000002  7.3109100089999997
  8.7351002520000005  0.7672997510000000  0.9810447990000000
  0.9310228640000000  5.6768732149999996  7.2744107749999998
  9.8719329689999995  3.0692251019999999  0.9892024090000000
  4.5308301420000001  5.4490191640000001  4.8190016980000001
  0.2686253470000000  1.0505734819999999  0.8468926820000000
  2.9508233179999999  1.0760634590000000  0.7857552470000000
  3.6105196990000001  1.3315853040000001  7.1901827679999997
  3.1854497689999999  6.1519912449999996  0.6840006400000000
  6.7716182820000004  6.3960039469999996  5.0619265349999996
  3.4969937830000002  2.7593967120000000  5.1315914579999999
 -0.7602810060000000  6.3027994280000001  3.0008822540000000
  3.5188762050000002  6.1253592330000002  7.0452117290000000
  4.3987972419999997  6.8587105639999999  2.6736872990000000
  4.4378711460000000  0.3897441350000000  5.0008150950000001
  7.1839293489999996  1.0154060240000000  3.2917937070000001
  2.1218867769999998  5.4321834620000002  5.0607616699999998
  9.8343369000000003  1.6274391740000000  2.9932440080000000
  7.7381332699999996  6.3084514289999998  2.9305787539999999
  8.4260192190000005  4.5498585040000004  5.4716791840000001
  0.6925487950000000  6.0951651780000002  0.8646260680000000
  6.2079111029999998  3.8246570420000001  5.0854304670000001
  0.5785370949999999  1.0749129870000000  7.1002443150000003
  7.1475921380000003  3.6673025170000000  0.9964570520000000
  8.3940716759999994  1.9266003000000000  5.2621901030000000
  2.0063537870000001  2.1067278360000001  2.9999824749999999
  4.8095610740000003  3.5398825600000001  7.1254064279999998
  1.8921713490000001  6.8868536440000003  2.8494367700000001
  0.1144512980000000  2.4564037490000001  5.0370997480000002
  3.2955154050000002  4.2277122860000000  2.9390007020000000
  9.2488615379999999  7.3210287640000002  5.1775518140000001
  1.9978372129999999  3.5104095580000001  0.9288247080000001
  1.7225648140000001  0.4457038920000000  4.9422917510000000
  6.0163948050000000  1.2288919149999999  0.9264655210000000
  9.4261461949999994  5.6529650990000002  7.4279643279999998
  5.9895895240000003  5.8947635350000001  0.6266692910000000
  8.9236669339999999  0.6881760250000000  7.3314772200000000
  0.8009006120000000  4.3003643629999999  2.9826231390000002
  6.8234664570000003  5.4033452430000004  7.2192826109999997
  8.9685249050000007  4.1175394489999997  3.0645750280000001
  6.5974511990000000  0.8230570630000000  7.0349176320000000
  4.5874913970000000  3.8591815420000000  0.7291008879999999
  7.7301062519999997  3.0129886959999999  7.3434425740000000
  5.7886214389999999  4.6188390879999996  2.7651980439999999
 -0.2886148090000000  4.9239993709999998  5.2725920769999997
  4.8669214289999996  2.0715402009999999  3.0820833749999998
  0.7348489730000000  5.8297878470000004  3.9799787929999999
  5.7496174360000003  6.2371469590000004  3.5850141650000000
 -0.3003591180000000  4.9426022920000001  6.8399759240000000
  9.8947448750000007  1.6345385509999999  1.4596623820000001
  1.9143310750000000  6.8594534060000001  1.2856484269999999
  3.6295401159999998  2.7781880650000002  6.7291066349999999
  0.8542303470000000  2.5969496759999999  8.2933215390000008
  7.7501796890000003  4.3875125319999997  8.4533561039999991
  3.3443683590000002  6.1708552760000002  5.4895531069999999
  5.8854783819999996  1.0848565740000000  2.4318966510000002
  9.0127960169999994  5.5306802440000000  2.5517109549999999
  7.0185580900000000  4.9577848549999999  5.7041044029999997
  0.4231444630000000  1.0630540289999999  5.5238961580000003
  2.0232303429999998  3.5399783579999999  2.5122004859999998
 -1.5060689420000000  7.2495282550000004  8.2802902980000006
  9.6117216049999996  3.4709558230000002  4.6255912029999999
  2.3241449049999998  5.0706181870000000  8.2244773640000002
  6.6164208240000004  7.0710048319999999  8.3529287700000001
  7.8645349930000004  1.6878959670000000  6.7031509729999996
  5.8700920239999999  4.4121025009999997  1.2196641710000000
  3.7445826940000000  7.6709319029999996  8.2088898429999997
  4.6664446780000004  3.7392208710000001  4.0391711770000001
  3.1907201530000000  1.2351686230000001  4.0080926909999999
  8.8900702529999993  0.5428526299999999  4.1017855770000002
