 O Al  P Al  P Al  P Al 
 1.0000000000000000
    14.2389010000000003    0.0000000000000000    0.0000000000000000
    -0.4583748547874976    4.4649400768820557    0.0000000000000000
    -1.4470928300470289   -0.4404071029168206   10.7027594907840413
  48   2   4   2   6   4   2   4
Cartesian
 10.7127178690000004  1.9661529149999999  2.5273017499999999
  4.0030251760000004  3.3726372570000001  2.8559349500000000
  5.6597689249999998  2.2547332330000001  5.9133847260000003
  1.3191654349999999  2.3312668950000002  3.9952376489999999
  6.2055202639999996  2.1893995240000002  3.4452688260000000
  2.9033826810000001  3.1409911650000000  5.7618780020000004
  4.0621395810000003  1.2255222459999999  4.3886004300000003
 13.2963179960000009  0.8517955630000000  3.4033924720000002
  6.4514788420000002  0.0066311040000000  1.9509623480000000
  8.3807847160000009  3.3606374710000000  2.2221835280000000
  2.2693133140000001  0.0465991100000000  0.2965723490000000
  8.9488119360000002  1.2477699849999999  0.9679712990000000
 10.8812113349999997  4.0916747249999998  1.3247969420000001
  4.2716433420000000  3.4164968860000000  0.3609198020000000
  8.6514219980000000  0.8811134940000001  3.6876850399999999
 12.6722981489999995  0.6865506680000000  5.8088912710000002
 10.2565868099999999  1.9769752810000001  5.3672557809999999
 10.6213764879999992  4.2956876030000002  4.0393787410000002
  6.2852988349999999  0.0808619720000000  4.6965011700000003
 12.7691911079999993  3.1091363250000001  4.3981954339999998
  2.0294215350000000  2.4629512920000001  1.5437658020000000
 12.8580964299999998  2.2478377799999998  1.3800002039999999
 -0.0123380830000000  3.8490226010000002  1.9709322020000000
  7.3727014129999997  2.9948713539999998 10.4788947839999995
  3.1807334749999998  3.3485945109999999  8.4202142480000006
  9.4508220000000005  3.9589949070000001  9.2448323210000005
  5.2764903070000004  1.8614706430000001  8.5588489100000000
 11.9401810659999992  3.9971106870000002 10.1328724179999998
  6.7252709609999997  2.3518283150000001  0.5558749150000000
  4.2603444169999998  1.1061331790000000  1.5211170100000000
  2.9154678070000002  1.0400632280000000  9.5907776279999997
 -0.0144435080000000  1.4418576679999999  9.6816316780000005
  1.4243929959999999 -0.1136537380000000  7.9981004469999997
 -0.8913299170000000 -0.3203114080000000  7.9207494269999996
  8.0233145540000006  3.0567401360000002  4.8636495829999999
  0.6761800940000000  2.1152839680000000  6.4808971409999998
  3.4458896229999998  1.0028324609999999  7.1120901730000003
  9.9995843910000008  2.1019787870000002  7.9647453810000002
  5.4905792699999996 -0.2799720640000000  9.8248540539999993
 12.0503655399999996  1.5440132200000001  8.6212282019999993
  9.6788552120000002  1.6551756019999999 10.5830661979999991
  2.4064321940000002  0.2153773930000000  2.8538725070000002
  7.5337337700000004  0.7973960240000000  8.9217687639999994
  7.7727138399999998  3.1528034269999998  7.5171559690000000
  5.8612188859999996 -0.2405747960000000  7.3198761289999998
 10.4484191220000007 -0.2479691980000000  6.8258382050000002
  8.1390808000000003  0.9301364950000000  6.1374933299999999
  1.1480699040000000 -0.1892489230000000  5.3512369260000003
  3.0223858510000001  1.8537794660000000  3.0625015229999999
 -0.4501782900000000  2.4730489350000000  3.0420197240000002
  5.5237938399999997  1.4507685570000000  4.5602939239999998
  1.4323075919999999  2.9509132550000001  5.4386278250000002
  4.5184125030000004  4.2090205139999997  1.7042822700000000
  8.1739472000000006  2.5934904280000000  0.8472269970000000
  6.9514169040000002  3.8272508539999999  3.3215654419999998
 10.0933178829999992  0.2970256990000000  2.6316624329999998
  8.8060672530000002  1.7057626660000000  5.0259171729999998
 12.5436902490000008  0.0033604580000000  4.3752952240000003
  1.4359400899999999  3.9480960930000002  1.6471078740000000
 11.4064339560000008  2.6233483839999998  1.3739739449999999
  2.8457712520000000  0.2220775500000000  8.2459287359999998
 -1.1159926760000001  0.5128166500000000  9.1894601199999997
  2.9528770620000002  1.7215704000000001  0.0984710620000000
  4.2072031550000002  2.5718563310000002  9.9395191109999992
 11.2007007180000002  1.3189199560000000  6.7706600459999997
  0.2332597160000000  0.4206971210000000  6.7162273399999997
  6.0640709010000000  0.5181691180000000  8.6844052359999999
  9.2017865830000005  3.4134934659999998  7.8088792829999996
 10.9160696159999997  2.6140535210000002  9.5780038639999994
  8.5328102030000004  0.1558270150000000 10.2643671720000000
  6.8065802110000000  3.8109029230000000  6.1723993549999996
  4.1603910969999998  2.6404427720000001  6.9790608609999998
