 O Al  P Al  P Al  P Al 
 1.0000000000000000
     8.9419330000000006    0.0000000000000000    0.0000000000000000
     0.1440281424417588    6.0324948812229238    0.0000000000000000
    -0.9480287280276626   -0.6918785807276450   12.4904980828489602
  48   2   4   2   6   4   2   4
Cartesian
  2.7865924550000001  4.8249809880000001  1.8413988910000001
  7.7832465649999998  1.7087492630000001  2.1202504109999998
  2.3351463520000002  1.6685325380000000  4.2750225530000003
  6.9230395820000004  2.8824491520000000  6.2967324600000003
  4.4834978630000002  1.4626967010000000  6.1924045740000002
  0.0119347030000000  1.4613936120000000  6.1910174859999998
  4.8300012270000003  4.6202331350000003  6.1057615070000004
  8.4438289030000000  3.5269280350000001  4.0450043060000000
  1.0141253760000000  0.6435973550000000  2.1168695020000001
  5.5114764369999998  3.0415119920000002  2.1409296680000001
  7.5135094190000000  4.5583779949999998 12.2948399940000002
  4.5161447140000002  2.1345999440000001  0.0825834410000000
  3.3124614399999999  1.7066004340000001  2.1209536880000002
  7.2568771090000004  4.8233801039999999  1.8426830610000000
  3.9728772979999998  3.5275366469999998  4.0442436539999997
  8.4086693149999991 -0.0842258460000000  4.0298390529999999
  3.9368126710000002 -0.0832172570000000  4.0320383179999997
  0.3605170280000000  4.6215884909999998  6.1049102810000004
  6.2016457249999997  4.7386998919999996  4.0468978640000000
  1.7310720959999999  4.7385241940000000  4.0454800410000002
  1.0415322229999999  3.0419800279999998  2.1398381290000001
  5.4856280450000003  0.6432780760000000  2.1194820299999999
  0.0457439770000000  2.1354689269999998  0.0813367990000000
  3.0424755850000000  4.5589947909999999 12.2935016800000003
 -0.6013966410000000 -0.0371272320000000  8.2177636429999996
  3.8868514319999998  3.3848353069999999  8.1183466610000004
  6.7425693349999998  0.3196155140000000 10.3866705590000006
  2.3812140479999999  2.7390861000000002 10.3713379600000000
  0.8431974660000000  3.2248649820000002 12.2735099440000006
  5.1958378039999999 -0.4105347980000000 12.2953385480000001
  6.8514105780000003  2.7393854819999999 10.3703726100000004
  4.0144222650000003  4.5999527049999998 10.1373667879999996
  5.9868559460000004  1.6481439440000001  8.3110520650000002
  1.8603927210000000  4.8085117290000001  8.2265257260000002
  2.3300186209999998  0.2750420070000000  6.1963824860000001
  6.8077382350000004  1.6677676140000000  4.2757915569999998
  8.3602188650000002  3.3859029320000000  8.1166934800000003
  3.8686797080000002 -0.0372820850000000  8.2162910430000000
  4.6215235879999996  1.5256385530000001 10.3703970230000007
  0.1508643360000000  1.5269498170000000 10.3685812839999993
  0.7251360590000000 -0.4101104010000000 12.2925219139999999
  5.3141757199999997  3.2240322300000002 12.2744447450000003
 -0.4578600350000000  4.5989640390000002 10.1375929209999995
  2.2717794370000002  0.3193508440000000 10.3853331180000001
  6.3318454229999999  4.8089927000000001  8.2282986509999994
  1.5180405699999999  1.6496061099999999  8.3102046680000008
  2.4543716910000000  2.8843971599999998  6.2946077159999998
  6.8008886569999998  0.2735639540000000  6.1965429089999997
  2.4329305470000002  0.2067351760000000  3.0972972300000001
  6.9040525790000000  0.2059351070000000  3.0987207450000001
  2.9634687700000000  1.5604744939999999  5.7344772009999998
  7.4343695739999998  1.5597523680000001  5.7356595900000000
  0.2980086470000000  1.8556903570000001  1.6067365780000000
  2.5334834150000001  5.1039993050000003  0.3158428490000000
  2.5131741949999999  3.2319800089999999  3.0800794040000001
  6.9842632409999998  3.2328621140000000  3.0796410800000000
  4.7336673080000002  4.7104853760000003  4.5537001659999996
  0.2633276250000000  4.7101852209999997  4.5527906690000002
  7.0046184379999996  5.1030579700000001  0.3169807400000000
  4.7692252860000002  1.8545232700000001  1.6080231220000001
  6.0891670570000000  1.5567982979999999  9.8629788479999991
  3.3811336100000000  4.7094326039999999  8.6808975119999996
 -0.6936510070000000  0.0278591330000000 11.3151153020000006
  3.8398029660000002  3.0304429819999998 11.3388802200000001
  5.3364724409999997  0.1164062080000000  7.2085596379999997
  5.4034631109999998  3.1279834150000001  7.2072906679999997
  7.8519699779999996  4.7090783439999999  8.6802489430000005
  1.6188966069999999  1.5572088589999999  9.8621843600000005
 -0.6309576620000000  3.0325626950000002 11.3366669140000003
  3.7771989210000001  0.0269383750000000 11.3160019159999994
  0.9379760080000000  3.1357824440000002  7.2086568880000002
  0.8648758840000000  0.1188911900000000  7.2081993410000003
