 O Al  P Al  P Al  P Al 
 1.0000000000000000
     7.5525159999999998    0.0000000000000000    0.0000000000000000
    -0.2825354062362453    7.2719914593395201    0.0000000000000000
     1.5943602262344501   -2.5275490403626071   12.5789034060073650
  48   2   4   2   6   4   2   4
Cartesian
  4.4922877760000004  4.8720902739999996  1.8932487460000000
  6.5267967169999999 -0.2680237960000000  1.8247466919999999
  2.3488203470000002  5.6334602900000004  4.1109128129999997
  5.5654025249999997  1.1545445790000000  4.1411195029999996
  3.4973544020000000  4.6096186509999999  6.1249779840000000
  7.1167478559999999  2.0410875439999998  5.9459988690000003
  4.7529296600000004  5.7627431810000003  4.2757351339999996
  0.9780776130000000  3.6337421420000000  4.4677931209999997
  0.3369518620000000  6.2169168590000004  0.0205765730000000
  4.4952633190000002  2.9217545290000002 12.5516479249999993
  7.2426793859999998  4.6163468400000003  1.9111001350000001
  4.1585752139999999  0.5571920790000000  0.3501052680000000
  3.3346208549999998  1.7713620139999999  2.3038718130000002
  5.8489228850000003  2.5652452779999999  1.4781863099999999
  1.8314538010000001  1.0655737839999999  4.3175803469999998
  6.0951272489999999  3.7206148230000000  3.9167942160000000
  3.4316706969999999 -0.0118813290000000  5.9111418210000002
  6.9342779280000002  4.7288620359999998  6.1313268909999996
  3.5485107010000001  3.4274005879999998  3.9802253099999998
  7.3692499770000000  5.7921806849999999  3.9119375820000002
  0.5549339140000000  2.2320270010000001  2.2568060719999998
  2.2992541470000001 -0.3806181090000000  1.9299182509999999
  8.3354772869999998 -1.5583733289999999 12.2436228570000001
  2.1600333520000001  4.1406936500000002  1.9134221499999999
  2.9790475320000001 -1.3884957490000001  8.1748377399999992
  6.5609790900000000  3.3617742329999998  8.2883945350000001
  6.8820125660000002 -0.1542328130000000 10.6557446240000004
  3.1683146710000001  2.1047468309999999 10.3422158440000000
  3.8255350809999999  3.2154425209999999  0.1712465100000000
  7.1509615510000000  3.3408222759999999 12.2645102500000007
  1.6907391820000000 -0.0046488960000000 10.0645020110000001
  5.5803549580000000  4.5969573070000003 10.2553552339999996
  7.5341503379999999  0.7898779350000000  8.3568729360000003
  4.1360524129999998  3.6228574949999999  8.5054947419999998
  1.9995121769999999  1.8444702710000001  6.6800731480000000
  5.8461745839999999  0.0088218710000000  6.3859948780000000
  1.6694219779999999  3.6113177670000001  8.0133244640000001
  5.7026039400000004 -1.5978375119999999  8.0526570230000001
  8.0693851700000003  2.1110147239999999 10.3350423219999996
  4.1273856990000004 -0.2463663620000000 10.6088864790000006
  1.8056855740000000  1.2906169860000001  0.2435296920000000
  1.7632608640000000  0.8330763730000000 12.4951453340000000
  2.0272484600000000  4.7386913460000004 10.2599910429999994
  5.5343804399999996  1.8448991770000001 10.2643646400000002
  7.8344464360000003  5.5444224340000003  8.5761928820000008
  4.2042594570000000  0.9008723520000000  8.3909099289999993
  1.0001304449999999 -0.3717463430000000  6.1725051530000004
  4.6692398500000003  2.2678585820000001  6.1762100039999996
  1.2571744229999999  5.5675729379999996  2.7329770450000002
  4.9304150450000002  2.4776289480000000  3.1531706349999999
  3.5516793380000000  4.9091667840000000  4.6293864759999996
  5.7736068050000000  1.3874252340000000  5.6515788970000003
  6.5240025519999998  6.8481376469999997  0.3342049110000000
  3.3770373349999998  4.4037768520000000  0.9789969560000000
  1.9510657389999999  2.5545074570000001  3.3616055779999998
  5.8173711890000002  5.5938606240000004  2.8570931759999998
  2.0581256240000001  0.5794346310000000  5.7257318599999998
  7.2466545980000001  4.3944082099999999  4.7103810399999997
  7.3091604200000004  3.1658639329999998  1.3973167710000001
  2.8679172479999999  0.7651901240000000  1.1582167820000000
  7.8943633379999998  0.6472603649999999  9.8674443319999998
  5.4653560929999996  4.2737612550000001  8.7616666599999995
  2.5897661290000000 -0.9972652880000000 11.2615034020000007
  5.6987063800000000  3.2393417350000000 11.3095913790000004
  4.2950676569999997 -0.5961266440000000  7.3607292260000001
  7.8609470799999999  2.4508576679999998  7.5245553860000003
  1.6716974730000000  4.9862677389999996  8.7794088489999993
  4.2423051489999999  1.1054083060000000  9.9071040430000004
  1.8862484030000000  2.3831118939999998 11.4267240230000002
  6.6723200030000003 -0.5538579330000000 12.3499912110000007
  3.3395231230000002  3.0292410900000002  7.0798852029999999
  7.2556428549999996 -0.9709486180000000  7.1770194519999997
