 O Al  P Al  P Al  P Al 
 1.0000000000000000
     8.7055150000000001    0.0000000000000000    0.0000000000000000
     2.7712413764927928    6.9262500849189186    0.0000000000000000
    -1.8652497500597307    3.7287893241715677   11.5729787841467271
  48   2   4   2   6   4   2   4
Cartesian
  4.7454845409999997  0.9583562970000000  1.7728471509999999
  2.7176750460000001  2.5273321210000002  1.9223977560000001
  6.3637442550000003  7.6908637210000004  4.1198351490000000
  8.8904765979999993  4.7075989829999996  5.3871173680000002
  6.8421217570000001  6.3906509309999997  6.1489151599999996
  0.8442693430000000  3.6744146639999999  3.2192273949999999
  4.9669032260000003  2.9366471600000001  4.0023239950000002
 -0.0301290430000000  2.2320095430000002  4.8575290620000002
  5.6022649030000000  6.1995601499999999  1.6480822660000001
  7.7765814730000002  4.9281055299999998  1.6159540459999999
  3.6665411699999999  4.8921755689999999  2.5369320480000002
  5.1242600060000001  7.6616277710000000 11.0689681849999992
  5.9656494730000000  3.3131756000000001  1.6720394949999999
  3.8247112310000002  7.4208589229999999  2.8166433199999998
  4.4200607669999998  4.7668340330000003  5.5339858890000002
  7.2192379180000001  1.3038501210000000  3.0410627920000000
  6.5527293620000000  3.5953405720000000  5.8700547460000001
  2.1742570859999999  6.3095504140000003  4.4586732130000000
  6.3645328479999996  5.0272237400000002  3.8878581699999999
  2.2270606289999999  3.3168495970000000  5.3097082709999999
  3.9839837739999999  3.4787592799999998  0.0793564990000000
  8.3182769590000003  2.5652206010000000  1.1548781230000000
 -0.0092735960000000  5.8374621099999997 11.2159742229999999
  9.4258847780000004  6.6374866680000002  0.8028013070000000
  6.8145572239999996  4.8956949459999999  8.1562077819999992
  2.6293593350000002  5.1705314250000001  6.9785426350000002
  4.7850213129999997  6.3038228409999997  8.9083088109999995
  0.1534323430000000  3.9014862720000001  9.6281831350000004
  5.2789909799999997 10.3900171560000008 11.1613700890000000
  3.4116346430000002  6.4934350519999997  0.5683684340000000
  7.5537691819999999  7.0324171870000001  9.2989753979999996
  2.1223054520000000  6.1474189380000004  9.2758791889999994
  7.2357739089999997  9.2635726090000006  9.9104289390000009
  0.3281875290000000  5.7282784490000003  7.7166635240000003
  4.6273772790000001  7.4863768329999996  5.9312775049999997
  9.0547678079999994  7.8174781780000000  5.3114827130000002
  8.6896122269999996  8.6606328000000001  7.7395214729999999
  2.2156366360000002  7.3959734920000004  7.0351936950000002
  0.8126416950000001  8.6651895890000006  9.9812796299999995
 -0.2349820970000000  2.9383487220000002  7.3947421029999996
  3.9541094719999998  5.4227911630000003 11.1831090710000005
  1.6885790160000000  4.4256563819999997  0.6898062170000000
  6.1203609419999996  4.5254799280000002 10.2189386520000003
  3.5346152620000000  8.4974631479999996  9.4969300810000004
  4.5295807049999999  3.9568311800000000  8.1125132870000005
  2.1492139280000000  2.9790493880000000  8.3357670670000008
  6.6420597150000003  8.8112255360000002  6.4116737080000004
  8.7036789829999996  6.2294208160000002  3.3674827270000001
  4.3777215810000003  3.0749912089999998  2.3386290040000000
  9.4604256430000007  5.1334608490000004  2.0830282520000001
  6.1393544840000001  7.6133451980000002  5.6293472590000002
  0.8430954389999999  3.5004245809999999  4.8039288630000003
  2.5599231260000002  3.1047546499999998  0.5073260500000000
  5.3456453020000003  0.5430137010000000  0.4292636840000000
  6.8506543940000002  6.4688358790000002  2.8971785419999998
  0.1208544300000000  1.9559159479999999  2.7926631749999999
  5.5752222509999996  4.0933675479999998  4.7483460659999999
  9.6772163970000005  7.1964575730000000  4.0994481860000000
  4.1156770600000003  6.2202219999999997  1.8889299790000000
  7.2401199560000000  3.6322048720000000  1.0017285890000001
  8.2742037530000001  8.3474211740000008  9.1358837990000001
  1.7728076189999999  6.1370041520000003  7.8238566340000002
  7.8716563810000002  5.3421328079999997  9.7216032959999996
  5.4569917170000002  9.0995605959999999  9.9957970340000006
  9.9449182199999999  8.8687236209999991  6.4575834910000003
  3.4111487100000000  6.2898013590000001  5.7069513330000001
  5.4115569600000004  4.9315506439999997  8.8171385380000000
  0.5978076800000000  2.8519679070000001  8.6644256100000003
  8.8469503270000001  9.8479553259999992 11.1733276210000003
  3.4512486299999998  6.8432947390000001 10.2568993309999996
  7.7135065379999999  4.9904293019999999  6.6419151540000003
  3.2995405060000000  3.4870503670000002  6.8150652579999997
