 O Al  P Al  P Al  P Al 
 1.0000000000000000
     8.5965330000000009    0.0000000000000000    0.0000000000000000
    -0.1126921853498897    6.2655306379665134    0.0000000000000000
    -0.1533368765605813   -1.3163046089835482   12.9594558884218340
  48   2   4   2   6   4   2   4
Cartesian
  6.0297117179999997  3.0059563909999998  2.7091397540000002
  1.7148233540000000  2.9973440610000002  2.7131309319999999
  5.5023794649999997  0.9389981630000001  4.5105051690000000
  1.1228786620000000  3.7506034590000001  5.0696688720000003
  6.7057076289999999  1.0195844350000001  6.7803716720000002
  2.3225625839999999  3.8264535810000000  7.3453325500000002
  7.5806688949999996  2.2112985030000001  4.8157366579999996
  3.2894954319999998 -0.2926831830000000  4.8405166209999999
  3.7983041960000001  4.2434451060000002  3.0415964770000001
  8.1898648040000008  1.4492101959999999  2.4594799620000001
  4.7736457510000001  2.6556119310000001  0.4909738270000000
  0.4721759340000000  2.6521281179999998  0.4986051420000000
  5.9936007020000002  5.5060740340000001  2.6765538279999999
  3.8916853020000000  1.4681238560000001  2.4538991810000002
  5.4217725489999999  3.7620764630000001  5.0688573669999997
  1.2148618620000000  0.9734501940000000  4.4834637500000003
  6.6165966679999997  3.8150115290000000  7.3530352319999999
  2.4050018270000000  1.0262237180000000  6.7710556469999998
  7.6160873240000004 -0.2895704890000000  4.8498031440000000
  3.2987963599999999  2.2182405690000002  4.8125156489999998
  1.7255202510000001  5.5102192060000004  2.6868175019999998
  0.4892315220000000  0.1467017010000000  0.5244154030000000
  4.7829226880000002  0.1474614420000000  0.5242420940000000
  8.1080327590000003  4.2784056079999999  3.0113358209999999
  6.1063111299999999  1.7807356990000001  9.1350343469999995
  1.8254096840000000 -0.7274568940000000  9.1665743850000005
  3.0420983360000000  4.6305653050000002 11.3218092860000006
  7.3378030389999997  4.6313285689999999 11.3218570540000005
  6.9884815380000003  1.3951556279999999  0.1794553120000000
  2.6044288060000000  4.1903787179999998  0.7546851449999999
  5.1342039479999997  3.3801845529999999 11.6679530269999994
  0.9231449400000000  0.5822122300000000 11.0977635479999996
  3.9353790140000000  3.3151637169999999  9.3903618360000003
  8.3185531130000001  0.5123098190000001  8.8242567059999999
  4.5288145069999999  5.0706745550000001  7.0022060420000001
  0.2413049000000000  2.5642824059999998  7.0327809309999996
  6.1099399639999996 -0.7293691220000000  9.1607078610000006
  1.8025288209999999  1.7758761210000000  9.1338261159999998
  5.2200194540000000  0.5852874710000000 11.0924851120000003
  7.3531527770000000  2.1250266529999999 11.3474876079999998
  6.9011577400000004  4.2020763170000004  0.7430686740000000
  2.6912668339999999  1.3978778190000001  0.1767760400000000
  3.0518085680000002  2.1244329620000002 11.3541272570000000
  0.8366381290000000  3.3819348119999999 11.6683453020000005
  4.0247156420000003  0.5278275590000000  8.8083629969999997
  8.2337489040000005  3.3254725160000000  9.3875351390000006
  4.5353738200000002  2.5639523999999998  7.0297337500000001
  0.2231745640000000  5.0690733720000001  6.9995806619999996
  4.6432115359999999  2.6422188549999999  3.7444127690000002
  0.3040157010000000  5.7519819639999996  3.7513141820000002
  6.8835122780000004  0.9757650320000000  5.2608874569999999
  0.9411787280000000  3.7970267600000001  6.5872206059999998
  2.4181898610000001  4.2269230230000003  2.2710051999999998
  8.3687586090000003  1.4187985050000000  0.9394503570000000
  4.5920572719999999  5.7364096499999997  3.7667173500000000
  0.3700484010000000  2.5757736890000000  3.7810398269999999
  5.2369361220000004  3.7947345800000001  6.5865532629999999
  2.5938139260000002  0.9896405560000000  5.2549156640000003
  4.0727674309999999  1.4238924310000001  0.9359590350000000
  6.7258370149999998  4.2413181870000001  2.2631616920000002
  3.7528325350000000  3.3551850950000000 10.9079678659999999
  1.1030561530000000  0.5429513720000000  9.5787103100000000
  5.9282402420000002  4.8631409769999996 12.4036342899999994
  1.6833730549999999  1.7310789830000000 12.4031415400000000
  7.4604507750000000  2.1876571399999998  8.0736961140000005
  3.1181559249999999  5.3059492470000000  8.0810841960000008
  5.4041480770000003  0.5484594010000000  9.5747870870000007
  8.0526806410000003  3.3585880650000002 10.9062602179999999
  5.9838177400000001  1.7375537750000001 12.3977253530000002
  1.6314942800000001  4.8654390559999996 12.4012726279999992
  7.4124183759999998  5.3012076410000004  8.0856528329999993
  3.1736848590000002  2.1633002509999999  8.0860637329999996
